O    Mo
    1.000000000000000     
  12.6023753605413997   0.0000000000000000   0.0000000000000000
   0.0000000000000000  12.6025129674090994   0.0000000000000000
   0.0000000000000000   0.0000000000000000  12.6023753605413997
O    Mo
1  128  
Selective dynamics
Direct
  0.5625064535010850  0.2500000000000000  0.3750000000000000 T T T
  0.3707571329852611  0.3774378373731848  0.3750000000000000 T T T
  0.7515911084334019  0.5021835492951754  0.5008316346066773 T T T
  0.9997374122282664  0.9999119736056286  0.9998727271377630 T T T
  0.2492504944426979  0.9991600811986960  0.9999776156098588 T T T
  0.4998567404931583  0.9997622498921908  0.9994801193856460 T T T
  0.7501740517709816  0.9997883767854020  0.9998544898864896 T T T
  0.0000397154789338  0.2500000000000000  0.9999255155765536 T T T
  0.2492625725009713  0.2500000000000000  0.9993217853912992 T T T
  0.4998744858495793  0.2500000000000000  0.9967973015925300 T T T
  0.7499809821398778  0.2500000000000000  0.9992170562664792 T T T
  0.9997374122282664  0.5000880263943714  0.9998727271377630 T T T
  0.2492504944426979  0.5008399188013039  0.9999776156098588 T T T
  0.4998567404931583  0.5002377501078092  0.9994801193856460 T T T
  0.7501740517709816  0.5002116232145980  0.9998544898864896 T T T
  0.9998507743901174  0.7500000000000000  0.0000681737979339 T T T
  0.2498058926861065  0.7500000000000000  0.0000421463360158 T T T
  0.4998988798874893  0.7500000000000000  0.9996574828277648 T T T
  0.7499816564295977  0.7500000000000000  0.9997888879902546 T T T
  0.0002534996955747  0.9997428199003772  0.2498190580006503 T T T
  0.2496359126432293  0.9996374135962396  0.2501910152928291 T T T
  0.4993860263487136  0.9989349758900192  0.2488841394881763 T T T
  0.7515911084334019  0.9978164507048246  0.2491683653933226 T T T
  0.0003957909772760  0.2500000000000000  0.2500047548949980 T T T
  0.2491453277296338  0.2500000000000000  0.2498247060833653 T T T
  0.4945348409148637  0.2500000000000000  0.2336802197325355 T T T
  0.7542235989501325  0.2500000000000000  0.2475603793674023 T T T
  0.0002534996955747  0.5002571800996228  0.2498190580006503 T T T
  0.2496359126432293  0.5003625864037604  0.2501910152928291 T T T
  0.4993860263487136  0.5010650241099808  0.2488841394881763 T T T
  0.7515911084334019  0.5021835492951754  0.2491683653933226 T T T
  0.0002495790650501  0.7500000000000000  0.2500459857429564 T T T
  0.2498232896046383  0.7500000000000000  0.2499432210494382 T T T
  0.4997301984942319  0.7500000000000000  0.2497473876518212 T T T
  0.7505075165655987  0.7500000000000000  0.2495820379237691 T T T
  0.0002534996955747  0.9997428199003772  0.5001809419993497 T T T
  0.2496359126432293  0.9996374135962396  0.4998089847071709 T T T
  0.4993860263487136  0.9989349758900192  0.5011158605118238 T T T
  0.7515911084334019  0.9978164507048246  0.5008316346066773 T T T
  0.0003957909772760  0.2500000000000000  0.4999952451050020 T T T
  0.2491453277296338  0.2500000000000000  0.5001752939166346 T T T
  0.4945348409148637  0.2500000000000000  0.5163197802674644 T T T
  0.7542235989501325  0.2500000000000000  0.5024396206325977 T T T
  0.0002534996955747  0.5002571800996228  0.5001809419993497 T T T
  0.2496359126432293  0.5003625864037604  0.4998089847071709 T T T
  0.4993860263487136  0.5010650241099808  0.5011158605118238 T T T
  0.0002495790650501  0.7500000000000000  0.4999540142570436 T T T
  0.2498232896046383  0.7500000000000000  0.5000567789505620 T T T
  0.4997301984942319  0.7500000000000000  0.5002526123481787 T T T
  0.7505075165655987  0.7500000000000000  0.5004179620762308 T T T
  0.9997374122282664  0.9999119736056286  0.7501272728622370 T T T
  0.2492504944426979  0.9991600811986960  0.7500223843901412 T T T
  0.4998567404931583  0.9997622498921908  0.7505198806143539 T T T
  0.7501740517709816  0.9997883767854020  0.7501455101135104 T T T
  0.0000397154789338  0.2500000000000000  0.7500744844234465 T T T
  0.2492625725009713  0.2500000000000000  0.7506782146087009 T T T
  0.4998744858495793  0.2500000000000000  0.7532026984074699 T T T
  0.7499809821398778  0.2500000000000000  0.7507829437335208 T T T
  0.9997374122282664  0.5000880263943714  0.7501272728622370 T T T
  0.2492504944426979  0.5008399188013039  0.7500223843901412 T T T
  0.4998567404931583  0.5002377501078092  0.7505198806143539 T T T
  0.7501740517709816  0.5002116232145980  0.7501455101135104 T T T
  0.9998507743901174  0.7500000000000000  0.7499318262020661 T T T
  0.2498058926861065  0.7500000000000000  0.7499578536639843 T T T
  0.4998988798874893  0.7500000000000000  0.7503425171722351 T T T
  0.7499816564295977  0.7500000000000000  0.7502111120097456 T T T
  0.1247406206912061  0.1248189300500396  0.1247383373052933 T T T
  0.3734100354732430  0.1241564821420485  0.1228110591022613 T T T
  0.6256121258283006  0.1238711541238186  0.1239316911353912 T T T
  0.8753711628292163  0.1251952587632185  0.1246289410925996 T T T
  0.1247406206912061  0.3751810699499603  0.1247383373052933 T T T
  0.3734100354732430  0.3758435178579514  0.1228110591022613 T T T
  0.6256121258283006  0.3761288458761813  0.1239316911353912 T T T
  0.8753711628292163  0.3748047412367815  0.1246289410925996 T T T
  0.1252638372694199  0.6251272079387858  0.1249112226453137 T T T
  0.3748259219920229  0.6251456906449663  0.1247882644687362 T T T
  0.6251471797893049  0.6255314037811452  0.1247567457336863 T T T
  0.8757581804512214  0.6250210869907783  0.1241502888582664 T T T
  0.1252638372694199  0.8748727920612142  0.1249112226453137 T T T
  0.3748259219920229  0.8748543093550337  0.1247882644687362 T T T
  0.6251471797893049  0.8744685962188548  0.1247567457336863 T T T
  0.8757581804512214  0.8749789130092217  0.1241502888582664 T T T
  0.1245972408570697  0.1250057896068894  0.3750000000000000 T T T
  0.3707571329852611  0.1225621626268152  0.3750000000000000 T T T
  0.6304467996267078  0.1086680715644285  0.3750000000000000 T T T
  0.8758623236580318  0.1248292605347646  0.3750000000000000 T T T
  0.1245972408570697  0.3749942103931107  0.3750000000000000 T T T
  0.6304467996267078  0.3913319284355715  0.3750000000000000 T T T
  0.8758623236580318  0.3751707394652355  0.3750000000000000 T T T
  0.1249602399163039  0.6250726542383283  0.3750000000000000 T T T
  0.3750162620771442  0.6257901246718537  0.3750000000000000 T T T
  0.6251261078881263  0.6282347327832131  0.3750000000000000 T T T
  0.8757425478863020  0.6256836207433123  0.3750000000000000 T T T
  0.1249602399163039  0.8749273457616717  0.3750000000000000 T T T
  0.3750162620771442  0.8742098753281463  0.3750000000000000 T T T
  0.6251261078881263  0.8717652672167869  0.3750000000000000 T T T
  0.8757425478863020  0.8743163792566877  0.3750000000000000 T T T
  0.1247406206912061  0.1248189300500396  0.6252616626947068 T T T
  0.3734100354732430  0.1241564821420485  0.6271889408977388 T T T
  0.6256121258283006  0.1238711541238186  0.6260683088646088 T T T
  0.8753711628292163  0.1251952587632185  0.6253710589074003 T T T
  0.1247406206912061  0.3751810699499603  0.6252616626947068 T T T
  0.3734100354732430  0.3758435178579514  0.6271889408977388 T T T
  0.6256121258283006  0.3761288458761813  0.6260683088646088 T T T
  0.8753711628292163  0.3748047412367815  0.6253710589074003 T T T
  0.1252638372694199  0.6251272079387858  0.6250887773546863 T T T
  0.3748259219920229  0.6251456906449663  0.6252117355312637 T T T
  0.6251471797893049  0.6255314037811452  0.6252432542663137 T T T
  0.8757581804512214  0.6250210869907783  0.6258497111417336 T T T
  0.1252638372694199  0.8748727920612142  0.6250887773546863 T T T
  0.3748259219920229  0.8748543093550337  0.6252117355312637 T T T
  0.6251471797893049  0.8744685962188548  0.6252432542663137 T T T
  0.8757581804512214  0.8749789130092217  0.6258497111417336 T T T
  0.1247519739324523  0.1250471345803677  0.8750000000000000 T T T
  0.3744892250091322  0.1245790105060119  0.8750000000000000 T T T
  0.6252769233473581  0.1247436535791179  0.8750000000000000 T T T
  0.8751724154791390  0.1249459158274442  0.8750000000000000 T T T
  0.1247519739324523  0.3749528654196324  0.8750000000000000 T T T
  0.3744892250091322  0.3754209894939881  0.8750000000000000 T T T
  0.6252769233473581  0.3752563464208820  0.8750000000000000 T T T
  0.8751724154791390  0.3750540841725559  0.8750000000000000 T T T
  0.1251506313478733  0.6249302391105420  0.8750000000000000 T T T
  0.3750191126439904  0.6252085429538029  0.8750000000000000 T T T
  0.6251021640434598  0.6253453040155322  0.8750000000000000 T T T
  0.8751919501270897  0.6249601180126519  0.8750000000000000 T T T
  0.1251506313478733  0.8750697608894580  0.8750000000000000 T T T
  0.3750191126439904  0.8747914570461971  0.8750000000000000 T T T
  0.6251021640434598  0.8746546959844678  0.8750000000000000 T T T
  0.8751919501270897  0.8750398819873481  0.8750000000000000 T T T
