W    O
   1.00000000000000
  12.6858970305270002   0.0000000000000000   0.0000000000000000
   0.0000000000000000  12.6858970305270002   0.0000000000000000
   0.0000000000000000   0.0000000000000000  12.6858970305270002
W    O
128  1  
Direct
  0.0000169381129993  0.9998427149036930  0.9997707341274310  
  0.1245706962405320  0.1248966104766680  0.1247229249101810  
  0.2494866734562680  0.9994456317836010  0.9997117729917020  
  0.3736702110793220  0.1241529330883320  0.1234282912709900  
  0.5000219559222500  0.9998333579557870  0.9994235318271620  
  0.6256831548601550  0.1243168389435500  0.1243441104651810  
  0.7503506938174880  0.9996493044135870  0.9996912184273730  
  0.8753929793868740  0.1250240094577750  0.1246754137643580  
  0.9999707232933590  0.2500359346244070  0.9998251517697840  
  0.1246590767731630  0.3753065399012030  0.1246986856862550  
  0.2494386181418090  0.2499780440110160  0.9993619246180860  
  0.3735063091589910  0.3764936918472020  0.1225124752243400  
  0.4999713945664790  0.2500286103988710  0.9976319060482620  
  0.6258470602426410  0.3763297859029390  0.1234282952370120  
  0.7501666382765180  0.2499780454089730  0.9994235311318110  
  0.8753045995543330  0.3751791393534210  0.1246511764892940  
  0.0000169360678299  0.5000687928433220  0.9998931578114419  
  0.1248970469907890  0.6251029574001170  0.1248936043578150  
  0.2492830018120390  0.5007170026855829  0.9997323296394710  
  0.3746934650782730  0.6253409262575430  0.1246986858783570  
  0.5000219550872270  0.5005613814823420  0.9993619244531330  
  0.6251033910893540  0.6254293053185550  0.1247229241040060  
  0.7505543646374520  0.5005133275260080  0.9997117740961270  
  0.8754298401095260  0.6251507729686950  0.1245736236750830  
  0.0000773393274969  0.7499226647745870  0.9998625593036290  
  0.1248492238631440  0.8745701565029760  0.1245736270522290  
  0.2499312068586260  0.7499830595304570  0.9998931585697690  
  0.3748208626570180  0.8746953989090260  0.1246511761822050  
  0.4999640676598100  0.7500292753139060  0.9998251469577820  
  0.6249759925533031  0.8746070166963800  0.1246754128948170  
  0.7501572794805330  0.7499830580227350  0.9997707374069120  
  0.8754776582114520  0.8745223395154940  0.1242536473609800  
  0.0001865314532310  0.9995966715919520  0.2496507557047780  
  0.1235883962463260  0.1250051151641570  0.3750000008136350  
  0.2486060337691430  0.9988823783877190  0.2494466667101070  
  0.3656411140355260  0.1216692772841410  0.3749999994216680  
  0.4997083252018730  0.9977240045290190  0.2486493885956160  
  0.6347824064053360  0.1152175806384290  0.3749999963156870  
  0.7521820617680181  0.9978179312716901  0.2488892242480890  
  0.8765321833662870  0.1248339218763310  0.3749999995581770  
  0.0002275629240600  0.2500898676261870  0.2499311949052720  
  0.1244387394958510  0.3749876509715550  0.3749999988693280  
  0.2493239163355910  0.2502916760298180  0.2494710496133270  
  0.3720928230445680  0.3779071779251810  0.3750000023148840  
  0.4976284165266880  0.2523715767041000  0.2351783357207110  
  0.6283307165157620  0.3843589005515680  0.3750000019782720  
  0.7522759932016641  0.2502916755464780  0.2486493872674270  
  0.8756818366958470  0.3751588443565050  0.3750000003586250  
  0.0001865340730234  0.5002196751119850  0.2498253105859620  
  0.1249935445491200  0.6250064531350500  0.3749999990190890  
  0.2496704728122050  0.5003295288949799  0.2500041058752130  
  0.3750123516530480  0.6255612629945519  0.3750000002490670  
  0.4997083254143960  0.5006760888178410  0.2494710465766020  
  0.6249948872795130  0.6264116097077660  0.3749999994626800  
  0.7511176202064650  0.5013939759649160  0.2494466656280070  
  0.8754518438277690  0.6253660281450020  0.3750000015053420  
  0.0001721841511753  0.7498278134312810  0.2498111597923010  
  0.1246339723051760  0.8745481555193000  0.3749999989353010  
  0.2497803233117680  0.7498134614879460  0.2498253111739430  
  0.3748411623179920  0.8743181604769820  0.3750000000715800  
  0.4999101320173910  0.7497724360058630  0.2499311931306780  
  0.6251660768199300  0.8734678086948831  0.3749999989123220  
  0.7504033255852680  0.7498134641543710  0.2496507564475650  
  0.8758114174833620  0.8741885774371880  0.3749999996667270  
  0.0001865339276605  0.9995966696821480  0.5003492443462320  
  0.1245706986502380  0.1248966097933180  0.6252770732801100  
  0.2486060338542230  0.9988823794200100  0.5005533339917250  
  0.3736702153369220  0.1241529382290950  0.6265717059689000  
  0.4997083225741650  0.9977240031290580  0.5013506104111090  
  0.6256831583196810  0.1243168429471310  0.6256558889934850  
  0.7521820616090840  0.9978179322979840  0.5011107742298651  
  0.8753929795706410  0.1250240110224040  0.6253245871674550  
  0.0002275625722348  0.2500898659582090  0.5000688064326581  
  0.1246590746968010  0.3753065378715020  0.6253013139637030  
  0.2493239166520950  0.2502916745357030  0.5005289536876560  
  0.3735063102556210  0.3764936884670580  0.6274875234630241  
  0.4976284105364000  0.2523715960848920  0.5148216951750370  
  0.6258470607373779  0.3763297845864390  0.6265717053962310  
  0.7522759924451210  0.2502916754871900  0.5013506116633270  
  0.8753046007179180  0.3751791400934080  0.6253488242992160  
  0.0001865318877563  0.5002196761696210  0.5001746900136510  
  0.1248970439972790  0.6251029581897640  0.6251063957566459  
  0.2496704728739300  0.5003295290838849  0.4999958936427050  
  0.3746934638557630  0.6253409261112139  0.6253013130926990  
  0.4997083254610930  0.5006760841009240  0.5005289549937830  
  0.6251033891065280  0.6254293073700480  0.6252770766424260  
  0.7511176209653390  0.5013939754997100  0.5005533369312190  
  0.8754298397672290  0.6251507760417280  0.6254263761767260  
  0.0001721823001546  0.7498278137168480  0.5001888413534840  
  0.1248492281393610  0.8745701553878720  0.6254263709581021  
  0.2497803254318210  0.7498134632668110  0.5001746888546350  
  0.3748208631876150  0.8746954005234220  0.6253488217905170  
  0.4999101339438920  0.7497724376118380  0.5000688059063950  
  0.6249759916027460  0.8746070187627381  0.6253245851566550  
  0.7504033268646000  0.7498134641818130  0.5003492457635870  
  0.8754776586857600  0.8745223395626810  0.6257463554717190  
  0.0000169361140223  0.9998427150516140  0.7502292640469580  
  0.1246886966637110  0.1248696457166220  0.8749999996512370  
  0.2494866748055030  0.9994456314459800  0.7502882257360500  
  0.3746259534945150  0.1246862360085930  0.8750000009155130  
  0.5000219571456340  0.9998333614747280  0.7505764654052810  
  0.6251923964213330  0.1248076053569350  0.8749999993741610  
  0.7503506943046860  0.9996493037366390  0.7503087792428720  
  0.8752269862538991  0.1249147210159690  0.8750000007098250  
  0.9999707240396840  0.2500359353019660  0.7501748520699820  
  0.1246845715801110  0.3751985089809510  0.8750000009677590  
  0.2494386217696840  0.2499780450206540  0.7506380755934500  
  0.3745045843864860  0.3754954190225420  0.8750000000779110  
  0.4999713943586100  0.2500286127503130  0.7523680893419210  
  0.6253137650745090  0.3753740483473680  0.8750000008102460  
  0.7501666352745460  0.2499780467931100  0.7505764681158450  
  0.8752311115007529  0.3751534321752740  0.8749999984348590  
  0.0000169361892262  0.5000687921064110  0.7501068413491300  
  0.1248539486025000  0.6251460581539660  0.8750000009703810  
  0.2492830008422260  0.5007170020215670  0.7502676722578910  
  0.3748014960943420  0.6253154300507260  0.8749999991107560  
  0.5000219552788751  0.5005613831704000  0.7506380773624460  
  0.6251303535913020  0.6253113077691740  0.8749999999206890  
  0.7505543669861230  0.5005133282021750  0.7502882265580060  
  0.8750843116966610  0.6250981595898610  0.8749999988289470  
  0.0000773354262691  0.7499226635107800  0.7501374376213260  
  0.1249018360955600  0.8749156803258270  0.8750000004521890  
  0.2499312071902220  0.7499830605074680  0.7501068438157500  
  0.3748465726305100  0.8747688890238690  0.8749999996466900  
  0.4999640707256320  0.7500292767455580  0.7501748523242640  
  0.6250852767417000  0.8747730095510350  0.8749999991008580  
  0.7501572809314960  0.7499830619735660  0.7502292635980869  
  0.8750364181791640  0.8749635813382640  0.8749999995685230  
  0.5312500139230070  0.2187499939201560  0.3749999788845100  
