POSCAR file written by OVITO Basic 3.9.4
    1.000000000000000     
    12.6726591004054576    0.0000000000000000    0.0000000000000000
    -0.0000000000000000   12.6726591004054576    0.0000000000000000
    -0.0000000000000000   -0.0000000000000000   12.6726591004054576
   W 
   127
Direct
     0.0000000000000000    0.0000000000000000    0.0000000000000000
     0.1251370431689504    0.1251370431689504    0.1251370431689504
     0.2498761865719617    0.0000000000000000    0.0000000000000000
     0.3751613930445409    0.1251928819806719    0.1251928819806719
     0.5000000000000000    0.0000000000000000    0.0000000000000000
     0.6248386069554591    0.1251928819806719    0.1251928819806719
     0.7501238134280381    0.0000000000000000    0.0000000000000000
     0.8748629568310496    0.1251370431689504    0.1251370431689504
     0.0000000000000000    0.2498761865719617    0.0000000000000000
     0.1251928819806719    0.3751613930445409    0.1251928819806719
     0.2499843625277076    0.2499843625277076    0.0000000000000000
     0.3750876177816801    0.3750876177816801    0.1248608227741824
     0.5000000000000000    0.2499683271912837    0.0000000000000000
     0.6249123822183199    0.3750876177816801    0.1248608227741824
     0.7500156374722926    0.2499843625277076    0.0000000000000000
     0.8748071180193280    0.3751613930445409    0.1251928819806719
     0.0000000000000000    0.5000000000000000    0.0000000000000000
     0.1251928819806719    0.6248386069554591    0.1251928819806719
     0.2499683271912837    0.5000000000000000    0.0000000000000000
     0.3750876177816801    0.6249123822183199    0.1248608227741824
     0.5000000000000000    0.5000000000000000    0.0000000000000000
     0.6249123822183199    0.6249123822183199    0.1248608227741824
     0.7500316728087162    0.5000000000000000    0.0000000000000000
     0.8748071180193280    0.6248386069554591    0.1251928819806719
     0.0000000000000000    0.7501238134280381    0.0000000000000000
     0.1251370431689504    0.8748629568310496    0.1251370431689504
     0.2499843625277076    0.7500156374722926    0.0000000000000000
     0.3751613930445409    0.8748071180193280    0.1251928819806719
     0.5000000000000000    0.7500316728087162    0.0000000000000000
     0.6248386069554591    0.8748071180193280    0.1251928819806719
     0.7500156374722926    0.7500156374722926    0.0000000000000000
     0.8748629568310496    0.8748629568310496    0.1251370431689504
     0.0000000000000000    0.0000000000000000    0.2498761865719617
     0.1251928819806719    0.1251928819806719    0.3751613930445409
     0.2499843625277076    0.0000000000000000    0.2499843625277076
     0.3750876177816801    0.1248608227741824    0.3750876177816801
     0.5000000000000000    0.0000000000000000    0.2499683271912837
     0.6249123822183199    0.1248608227741824    0.3750876177816801
     0.7500156374722926    0.0000000000000000    0.2499843625277076
     0.8748071180193280    0.1251928819806719    0.3751613930445409
     0.0000000000000000    0.2499843625277076    0.2499843625277076
     0.1248608227741824    0.3750876177816801    0.3750876177816801
     0.2508607097485830    0.2508607097485830    0.2508607097485830
     0.3763262545236951    0.3763262545236951    0.3763262545236951
     0.5000000000000000    0.2505433754490353    0.2505433754490353
     0.6236737454763049    0.3763262545236951    0.3763262545236951
     0.7491392902514171    0.2508607097485830    0.2508607097485830
     0.8751391772258177    0.3750876177816801    0.3750876177816801
     0.0000000000000000    0.5000000000000000    0.2499683271912837
     0.1248608227741824    0.6249123822183199    0.3750876177816801
     0.2505433754490353    0.5000000000000000    0.2505433754490353
     0.3763262545236951    0.6236737454763049    0.3763262545236951
     0.5000000000000000    0.5000000000000000    0.2522725359226435
     0.6236737454763049    0.6236737454763049    0.3763262545236951
     0.7494566245509646    0.5000000000000000    0.2505433754490353
     0.8751391772258177    0.6249123822183199    0.3750876177816801
     0.0000000000000000    0.7500156374722926    0.2499843625277076
     0.1251928819806719    0.8748071180193280    0.3751613930445409
     0.2508607097485830    0.7491392902514171    0.2508607097485830
     0.3750876177816801    0.8751391772258177    0.3750876177816801
     0.5000000000000000    0.7494566245509646    0.2505433754490353
     0.6249123822183199    0.8751391772258177    0.3750876177816801
     0.7491392902514171    0.7491392902514171    0.2508607097485830
     0.8748071180193280    0.8748071180193280    0.3751613930445409
     0.0000000000000000    0.0000000000000000    0.5000000000000000
     0.1251928819806719    0.1251928819806719    0.6248386069554591
     0.2499683271912837    0.0000000000000000    0.5000000000000000
     0.3750876177816801    0.1248608227741824    0.6249123822183199
     0.5000000000000000    0.0000000000000000    0.5000000000000000
     0.6249123822183199    0.1248608227741824    0.6249123822183199
     0.7500316728087162    0.0000000000000000    0.5000000000000000
     0.8748071180193280    0.1251928819806719    0.6248386069554591
     0.0000000000000000    0.2499683271912837    0.5000000000000000
     0.1248608227741824    0.3750876177816801    0.6249123822183199
     0.2505433754490353    0.2505433754490353    0.5000000000000000
     0.3763262545236951    0.3763262545236951    0.6236737454763049
     0.5000000000000000    0.2522725359226435    0.5000000000000000
     0.6236737454763049    0.3763262545236951    0.6236737454763049
     0.7494566245509646    0.2505433754490353    0.5000000000000000
     0.8751391772258177    0.3750876177816801    0.6249123822183199
     0.0000000000000000    0.5000000000000000    0.5000000000000000
     0.1248608227741824    0.6249123822183199    0.6249123822183199
     0.2522725359226435    0.5000000000000000    0.5000000000000000
     0.3763262545236951    0.6236737454763049    0.6236737454763049
     0.6236737454763049    0.6236737454763049    0.6236737454763049
     0.7477274640773564    0.5000000000000000    0.5000000000000000
     0.8751391772258177    0.6249123822183199    0.6249123822183199
     0.0000000000000000    0.7500316728087162    0.5000000000000000
     0.1251928819806719    0.8748071180193280    0.6248386069554591
     0.2505433754490353    0.7494566245509646    0.5000000000000000
     0.3750876177816801    0.8751391772258177    0.6249123822183199
     0.5000000000000000    0.7477274640773564    0.5000000000000000
     0.6249123822183199    0.8751391772258177    0.6249123822183199
     0.7494566245509646    0.7494566245509646    0.5000000000000000
     0.8748071180193280    0.8748071180193280    0.6248386069554591
     0.0000000000000000    0.0000000000000000    0.7501238134280381
     0.1251370431689504    0.1251370431689504    0.8748629568310496
     0.2499843625277076    0.0000000000000000    0.7500156374722926
     0.3751613930445409    0.1251928819806719    0.8748071180193280
     0.5000000000000000    0.0000000000000000    0.7500316728087162
     0.6248386069554591    0.1251928819806719    0.8748071180193280
     0.7500156374722926    0.0000000000000000    0.7500156374722926
     0.8748629568310496    0.1251370431689504    0.8748629568310496
     0.0000000000000000    0.2499843625277076    0.7500156374722926
     0.1251928819806719    0.3751613930445409    0.8748071180193280
     0.2508607097485830    0.2508607097485830    0.7491392902514171
     0.3750876177816801    0.3750876177816801    0.8751391772258177
     0.5000000000000000    0.2505433754490353    0.7494566245509646
     0.6249123822183199    0.3750876177816801    0.8751391772258177
     0.7491392902514171    0.2508607097485830    0.7491392902514171
     0.8748071180193280    0.3751613930445409    0.8748071180193280
     0.0000000000000000    0.5000000000000000    0.7500316728087162
     0.1251928819806719    0.6248386069554591    0.8748071180193280
     0.2505433754490353    0.5000000000000000    0.7494566245509646
     0.3750876177816801    0.6249123822183199    0.8751391772258177
     0.5000000000000000    0.5000000000000000    0.7477274640773564
     0.6249123822183199    0.6249123822183199    0.8751391772258177
     0.7494566245509646    0.5000000000000000    0.7494566245509646
     0.8748071180193280    0.6248386069554591    0.8748071180193280
     0.0000000000000000    0.7500156374722926    0.7500156374722926
     0.1251370431689504    0.8748629568310496    0.8748629568310496
     0.2508607097485830    0.7491392902514171    0.7491392902514171
     0.3751613930445409    0.8748071180193280    0.8748071180193280
     0.5000000000000000    0.7494566245509646    0.7494566245509646
     0.6248386069554591    0.8748071180193280    0.8748071180193280
     0.7491392902514171    0.7491392902514171    0.7491392902514171
     0.8748629568310496    0.8748629568310496    0.8748629568310496
 
  0.00000000E+00  0.00000000E+00  0.00000000E+00
  0.00000000E+00  0.00000000E+00  0.00000000E+00
  0.00000000E+00  0.00000000E+00  0.00000000E+00
  0.00000000E+00  0.00000000E+00  0.00000000E+00
  0.00000000E+00  0.00000000E+00  0.00000000E+00
  0.00000000E+00  0.00000000E+00  0.00000000E+00
  0.00000000E+00  0.00000000E+00  0.00000000E+00
  0.00000000E+00  0.00000000E+00  0.00000000E+00
  0.00000000E+00  0.00000000E+00  0.00000000E+00
  0.00000000E+00  0.00000000E+00  0.00000000E+00
  0.00000000E+00  0.00000000E+00  0.00000000E+00
  0.00000000E+00  0.00000000E+00  0.00000000E+00
  0.00000000E+00  0.00000000E+00  0.00000000E+00
  0.00000000E+00  0.00000000E+00  0.00000000E+00
  0.00000000E+00  0.00000000E+00  0.00000000E+00
  0.00000000E+00  0.00000000E+00  0.00000000E+00
  0.00000000E+00  0.00000000E+00  0.00000000E+00
  0.00000000E+00  0.00000000E+00  0.00000000E+00
  0.00000000E+00  0.00000000E+00  0.00000000E+00
  0.00000000E+00  0.00000000E+00  0.00000000E+00
  0.00000000E+00  0.00000000E+00  0.00000000E+00
  0.00000000E+00  0.00000000E+00  0.00000000E+00
  0.00000000E+00  0.00000000E+00  0.00000000E+00
  0.00000000E+00  0.00000000E+00  0.00000000E+00
  0.00000000E+00  0.00000000E+00  0.00000000E+00
  0.00000000E+00  0.00000000E+00  0.00000000E+00
  0.00000000E+00  0.00000000E+00  0.00000000E+00
  0.00000000E+00  0.00000000E+00  0.00000000E+00
  0.00000000E+00  0.00000000E+00  0.00000000E+00
  0.00000000E+00  0.00000000E+00  0.00000000E+00
  0.00000000E+00  0.00000000E+00  0.00000000E+00
  0.00000000E+00  0.00000000E+00  0.00000000E+00
  0.00000000E+00  0.00000000E+00  0.00000000E+00
  0.00000000E+00  0.00000000E+00  0.00000000E+00
  0.00000000E+00  0.00000000E+00  0.00000000E+00
  0.00000000E+00  0.00000000E+00  0.00000000E+00
  0.00000000E+00  0.00000000E+00  0.00000000E+00
  0.00000000E+00  0.00000000E+00  0.00000000E+00
  0.00000000E+00  0.00000000E+00  0.00000000E+00
  0.00000000E+00  0.00000000E+00  0.00000000E+00
  0.00000000E+00  0.00000000E+00  0.00000000E+00
  0.00000000E+00  0.00000000E+00  0.00000000E+00
  0.00000000E+00  0.00000000E+00  0.00000000E+00
  0.00000000E+00  0.00000000E+00  0.00000000E+00
  0.00000000E+00  0.00000000E+00  0.00000000E+00
  0.00000000E+00  0.00000000E+00  0.00000000E+00
  0.00000000E+00  0.00000000E+00  0.00000000E+00
  0.00000000E+00  0.00000000E+00  0.00000000E+00
  0.00000000E+00  0.00000000E+00  0.00000000E+00
  0.00000000E+00  0.00000000E+00  0.00000000E+00
  0.00000000E+00  0.00000000E+00  0.00000000E+00
  0.00000000E+00  0.00000000E+00  0.00000000E+00
  0.00000000E+00  0.00000000E+00  0.00000000E+00
  0.00000000E+00  0.00000000E+00  0.00000000E+00
  0.00000000E+00  0.00000000E+00  0.00000000E+00
  0.00000000E+00  0.00000000E+00  0.00000000E+00
  0.00000000E+00  0.00000000E+00  0.00000000E+00
  0.00000000E+00  0.00000000E+00  0.00000000E+00
  0.00000000E+00  0.00000000E+00  0.00000000E+00
  0.00000000E+00  0.00000000E+00  0.00000000E+00
  0.00000000E+00  0.00000000E+00  0.00000000E+00
  0.00000000E+00  0.00000000E+00  0.00000000E+00
  0.00000000E+00  0.00000000E+00  0.00000000E+00
  0.00000000E+00  0.00000000E+00  0.00000000E+00
  0.00000000E+00  0.00000000E+00  0.00000000E+00
  0.00000000E+00  0.00000000E+00  0.00000000E+00
  0.00000000E+00  0.00000000E+00  0.00000000E+00
  0.00000000E+00  0.00000000E+00  0.00000000E+00
  0.00000000E+00  0.00000000E+00  0.00000000E+00
  0.00000000E+00  0.00000000E+00  0.00000000E+00
  0.00000000E+00  0.00000000E+00  0.00000000E+00
  0.00000000E+00  0.00000000E+00  0.00000000E+00
  0.00000000E+00  0.00000000E+00  0.00000000E+00
  0.00000000E+00  0.00000000E+00  0.00000000E+00
  0.00000000E+00  0.00000000E+00  0.00000000E+00
  0.00000000E+00  0.00000000E+00  0.00000000E+00
  0.00000000E+00  0.00000000E+00  0.00000000E+00
  0.00000000E+00  0.00000000E+00  0.00000000E+00
  0.00000000E+00  0.00000000E+00  0.00000000E+00
  0.00000000E+00  0.00000000E+00  0.00000000E+00
  0.00000000E+00  0.00000000E+00  0.00000000E+00
  0.00000000E+00  0.00000000E+00  0.00000000E+00
  0.00000000E+00  0.00000000E+00  0.00000000E+00
  0.00000000E+00  0.00000000E+00  0.00000000E+00
  0.00000000E+00  0.00000000E+00  0.00000000E+00
  0.00000000E+00  0.00000000E+00  0.00000000E+00
  0.00000000E+00  0.00000000E+00  0.00000000E+00
  0.00000000E+00  0.00000000E+00  0.00000000E+00
  0.00000000E+00  0.00000000E+00  0.00000000E+00
  0.00000000E+00  0.00000000E+00  0.00000000E+00
  0.00000000E+00  0.00000000E+00  0.00000000E+00
  0.00000000E+00  0.00000000E+00  0.00000000E+00
  0.00000000E+00  0.00000000E+00  0.00000000E+00
  0.00000000E+00  0.00000000E+00  0.00000000E+00
  0.00000000E+00  0.00000000E+00  0.00000000E+00
  0.00000000E+00  0.00000000E+00  0.00000000E+00
  0.00000000E+00  0.00000000E+00  0.00000000E+00
  0.00000000E+00  0.00000000E+00  0.00000000E+00
  0.00000000E+00  0.00000000E+00  0.00000000E+00
  0.00000000E+00  0.00000000E+00  0.00000000E+00
  0.00000000E+00  0.00000000E+00  0.00000000E+00
  0.00000000E+00  0.00000000E+00  0.00000000E+00
  0.00000000E+00  0.00000000E+00  0.00000000E+00
  0.00000000E+00  0.00000000E+00  0.00000000E+00
  0.00000000E+00  0.00000000E+00  0.00000000E+00
  0.00000000E+00  0.00000000E+00  0.00000000E+00
  0.00000000E+00  0.00000000E+00  0.00000000E+00
  0.00000000E+00  0.00000000E+00  0.00000000E+00
  0.00000000E+00  0.00000000E+00  0.00000000E+00
  0.00000000E+00  0.00000000E+00  0.00000000E+00
  0.00000000E+00  0.00000000E+00  0.00000000E+00
  0.00000000E+00  0.00000000E+00  0.00000000E+00
  0.00000000E+00  0.00000000E+00  0.00000000E+00
  0.00000000E+00  0.00000000E+00  0.00000000E+00
  0.00000000E+00  0.00000000E+00  0.00000000E+00
  0.00000000E+00  0.00000000E+00  0.00000000E+00
  0.00000000E+00  0.00000000E+00  0.00000000E+00
  0.00000000E+00  0.00000000E+00  0.00000000E+00
  0.00000000E+00  0.00000000E+00  0.00000000E+00
  0.00000000E+00  0.00000000E+00  0.00000000E+00
  0.00000000E+00  0.00000000E+00  0.00000000E+00
  0.00000000E+00  0.00000000E+00  0.00000000E+00
  0.00000000E+00  0.00000000E+00  0.00000000E+00
  0.00000000E+00  0.00000000E+00  0.00000000E+00
  0.00000000E+00  0.00000000E+00  0.00000000E+00
  0.00000000E+00  0.00000000E+00  0.00000000E+00
  0.00000000E+00  0.00000000E+00  0.00000000E+00
