W    O
   1.00000000000000
  12.6858970305270002   0.0000000000000000   0.0000000000000000
   0.0000000000000000  12.6858970305270002   0.0000000000000000
   0.0000000000000000   0.0000000000000000  12.6858970305270002
W    O
128  1  
Direct
  0.0000000014261234  0.9997918238635080  0.9997135072667550  
  0.1245144582865640  0.1250439107576746  0.1247094646501259  
  0.2496609870188243  0.9996376158092750  0.9996912141491761  
  0.3742170319222408  0.1244166462689700  0.1243441119234915  
  0.4999999986484605  0.9999572489074811  0.9993326038238640  
  0.6257829646912959  0.1244166480063281  0.1243441119504898  
  0.7503390118811557  0.9996376157891710  0.9996912157845370  
  0.8754855401368851  0.1250439120227115  0.1247094641498913  
  0.9999999997911950  0.2500718672386877  0.9997217624749050  
  0.1246912186132036  0.3753623864700246  0.1246609886647987  
  0.2497094641886949  0.2499560890748627  0.9995144612956950  
  0.3738892242127753  0.3768766066927546  0.1225124792939214  
  0.5000000006785613  0.2500572166491607  0.9976319133269610  
  0.6261107746278273  0.3768766050829647  0.1225124828719486  
  0.7502905374756481  0.2499560885713943  0.9995144605925920  
  0.8753087837663724  0.3753623835385083  0.1246609901586463  
  0.9999999987624441  0.5000311928810687  0.9999583509598789  
  0.1248279636330382  0.6250338785466694  0.1248935981336249  
  0.2492536438745777  0.5006876482002193  0.9997323285518320  
  0.3747493054619341  0.6253730718966529  0.1247363790330223  
  0.4999999976126086  0.5008322285527812  0.9992093914346550  
  0.6252506945375224  0.6253730672236412  0.1247363806525393  
  0.7507463546057440  0.5006876480192043  0.9997323269218470  
  0.8751720412020215  0.6250338769928062  0.1248935996907160  
  0.0000000050186290  0.7498453257198658  0.9998625597330461  
  0.1247323239681924  0.8743123518797064  0.1242536444637791  
  0.2498935972837207  0.7499661219250059  0.9998279605841280  
  0.3750041040843684  0.8746995759756676  0.1246413600816124  
  0.5000000016568419  0.7500585519734123  0.9999285365430520  
  0.6249958968765579  0.8746995758257504  0.1246413584831247  
  0.7501063980421964  0.7499661168906102  0.9998279621243940  
  0.8752676743677356  0.8743123498916388  0.1242536480567448  
  0.9999999982711820  0.9994569591257690  0.2495522007946329  
  0.1226319199617091  0.1249427854195956  0.3749999993856040  
  0.2475124825592556  0.9981233977241420  0.2488892273610314  
  0.3601783250037560  0.1202568154213669  0.3750000001397026  
  0.4999999993936469  0.9961039027893090  0.2480817433442880  
  0.6398216540058246  0.1202568271226530  0.3749999958033964  
  0.7524875166628604  0.9981233935261640  0.2488892240704761  
  0.8773680831574976  0.1249427839078491  0.3749999991488200  
  0.9999999999968360  0.2501797353318763  0.2497949422572130  
  0.1243326056350895  0.3750427469044191  0.3749999977949445  
  0.2493441144017284  0.2505833538146951  0.2492170360191943  
  0.3730817451935182  0.3788960967468599  0.3750000030393454  
  0.5000000006450775  0.2547431546062540  0.2351783500379593  
  0.6269182554239385  0.3788960994612126  0.3750000014409116  
  0.7506558874873065  0.2505833517051979  0.2492170348362693  
  0.8756673942658219  0.3750427480471053  0.3750000000478739  
  0.0000000012269733  0.5001757330445885  0.2499013093966946  
  0.1249285369467090  0.6249414462891839  0.3750000008365385  
  0.2496413611158460  0.5003004200708414  0.2500041066004727  
  0.3750674408728739  0.6254551240507559  0.3749999988537439  
  0.4999999982526669  0.5006962822839871  0.2497250627061481  
  0.6249325598518227  0.6254551231835448  0.3749999993026315  
  0.7503586380196710  0.5003004243779451  0.2500041076613572  
  0.8750714640932559  0.6249414456719338  0.3750000006636151  
  0.0000000031597943  0.7496556270818748  0.2498111537244040  
  0.1242093919427891  0.8741677728133405  0.3749999971136455  
  0.2497363772660324  0.7496269261612349  0.2497493074259610  
  0.3747250601080056  0.8743037205541799  0.3750000001573474  
  0.4999999982319801  0.7495448738056409  0.2500674389825840  
  0.6252749378046680  0.8743037184192511  0.3749999977572305  
  0.7502636228376569  0.7496269281233361  0.2497493052114745  
  0.8757906106927360  0.8741677708402014  0.3749999988590971  
  0.0000000010288236  0.9994569564667900  0.5004477960798919  
  0.1245144625419605  0.1250439123585957  0.6252905328862058  
  0.2475124848969706  0.9981233993733830  0.5011107732955303  
  0.3742170340486179  0.1244166545307559  0.6256558825874089  
  0.4999999997305520  0.9961038990169701  0.5019182533732928  
  0.6257829642360687  0.1244166498123299  0.6256558863862525  
  0.7524875190678422  0.9981233948982410  0.5011107698251678  
  0.8754855401088691  0.1250439138693317  0.6252905360029231  
  0.9999999998391200  0.2501797345044131  0.5002050602847006  
  0.1246912169614973  0.3753623832903643  0.6253390116876668  
  0.2493441128038592  0.2505833495336228  0.5007829667184732  
  0.3738892260620560  0.3768765997003675  0.6274875138796800  
  0.4999999959622766  0.2547431911243629  0.5148217088524980  
  0.6261107694908362  0.3768766010134877  0.6274875185220863  
  0.7506558869373353  0.2505833491346367  0.5007829650902418  
  0.8753087844754525  0.3753623844826765  0.6253390131147348  
  0.9999999987104390  0.5001757334580560  0.5000986919032323  
  0.1248279618205395  0.6250338786599965  0.6251064001983034  
  0.2496413608271254  0.5003004219276148  0.4999958939845461  
  0.3747493039790353  0.6253730720220505  0.6252636213518686  
  0.4999999994657169  0.5006962773851449  0.5002749393654250  
  0.6252506911042057  0.6253730736946319  0.6252636233549836  
  0.7503586386376954  0.5003004227888411  0.4999958954208384  
  0.8751720368300221  0.6250338807815388  0.6251063998033403  
  0.0000000026057346  0.7496556248483358  0.5001888466289390  
  0.1247323271067249  0.8743123509758166  0.6257463551927456  
  0.2497363773375454  0.7496269293373912  0.5002506926651236  
  0.3750041027559650  0.8746995796138339  0.6253586382894599  
  0.4999999975151667  0.7495448775651101  0.4999325579210125  
  0.6249958964706039  0.8746995768399268  0.6253586378986991  
  0.7502636252934274  0.7496269286152835  0.5002506928526276  
  0.8752676749407354  0.8743123487015982  0.6257463551462595  
  0.9999999987010660  0.9997918226222050  0.7502864921919338  
  0.1247217573928861  0.1249281309545159  0.8750000011559945  
  0.2496609882141493  0.9996376168719490  0.7503087836966573  
  0.3747949384712327  0.1248202660441953  0.8750000021290893  
  0.4999999998666643  0.9999572535964240  0.7506673934829717  
  0.6252050609193833  0.1248202661021917  0.8749999981716591  
  0.7503390123245491  0.9996376156334210  0.7503087801887811  
  0.8752782426731521  0.1249281273330519  0.8750000015913819  
  0.0000000022413692  0.2500718713275471  0.7502782414997682  
  0.1247135083623889  0.3752081801702920  0.8750000009020656  
  0.2497094643556919  0.2499560918949323  0.7504855384733959  
  0.3745521993470047  0.3755430412935481  0.8750000008136627  
  0.4999999991414276  0.2500572225110512  0.7523680828582663  
  0.6254477993193831  0.3755430413425544  0.8750000025215640  
  0.7502905354080094  0.2499560924231296  0.7504855386691150  
  0.8752864944695233  0.3752081786073084  0.8749999985569310  
  0.9999999991636050  0.5000311882449534  0.7500416490050900  
  0.1248625678788425  0.6251546794037202  0.8750000029960120  
  0.2492536430600004  0.5006876479720348  0.7502676746322609  
  0.3748111548717493  0.6253443713995865  0.8749999965911072  
  0.4999999980248938  0.5008322321956460  0.7507906134464444  
  0.6251888412757917  0.6253443720761885  0.8750000008441337  
  0.7507463574582731  0.5006876484281978  0.7502676768851168  
  0.8751374386010211  0.6251546722560603  0.8749999991752013  
  0.9999999987002151  0.7498453248296557  0.7501374388818947  
  0.1249583509189829  0.8749688017239510  0.8750000010447120  
  0.2498936013393219  0.7499661229929463  0.7501720407918875  
  0.3749013071234570  0.8748242655974606  0.8749999991311397  
  0.5000000017477615  0.7500585524758797  0.7500714626427988  
  0.6250986902149019  0.8748242631963835  0.8749999983138422  
  0.7501064018587774  0.7499661236740262  0.7501720407289849  
  0.8750416505328078  0.8749688061578846  0.8749999991939015  
  0.5000000195864043  0.1875000227571252  0.3749999596276742  
