Cubic Mo + interstitials                
    1.000000000000000     
    12.6023753605413624    0.0000000000000000    0.0000000000000000
     0.0000000000000000   12.6025129674090639    0.0000000000000000
     0.0000000000000000    0.0000000000000000   12.6023753605413624
   Mo   O 
   127     1
Selective dynamics
Direct
  0.3804153098601378  0.3778214920541102  0.3783236362069518   T   T   T
  0.7453808863013094  0.5000000000000000  0.5004704761993043   T   T   T
 -0.0003543301437399  0.0000000000000000  0.0004750669356592   T   T   T
  0.2489221115991976  0.0000000000000000  0.0004591492198697   T   T   T
  0.4994232032547213  0.0000000000000000  0.0004671362569499   T   T   T
  0.7492731596415929  0.0000000000000000  0.0004960587017479   T   T   T
  0.0002969297725385  0.2498289990408669  0.0004635644824894   T   T   T
  0.2503840343851075  0.2501339172752090  0.0004701319773696   T   T   T
  0.5000828961142958  0.2499480577076420  0.0004903286676312   T   T   T
  0.7503097383319866  0.2497947261478725  0.0004823495521669   T   T   T
  0.0004320599309965  0.5000000000000000  0.0004553231705936   T   T   T
  0.2505904612840312  0.5000000000000000  0.0004960746889063   T   T   T
  0.5002645689615974  0.5000000000000000  0.0004810702296874   T   T   T
  0.7503953313845924  0.5000000000000000  0.0004602131131095   T   T   T
  0.0002969297725385  0.7501710009591330  0.0004635644824894   T   T   T
  0.2503840343851075  0.7498660827247910  0.0004701319773696   T   T   T
  0.5000828961142958  0.7500519422923583  0.0004903286676312   T   T   T
  0.7503097383319866  0.7502052738521273  0.0004823495521669   T   T   T
  0.0003028146254721  0.0000000000000000  0.2502943060387621   T   T   T
  0.2503786600415725  0.0000000000000000  0.2505791515921042   T   T   T
  0.5000837885005328  0.0000000000000000  0.2504122596254976   T   T   T
  0.7503187354955546  0.0000000000000000  0.2502679442830326   T   T   T
 -0.0003384441510893  0.2497445769153636  0.2502045053471365   T   T   T
  0.2509583458365320  0.2508551686469162  0.2513339628991901   T   T   T
  0.4994962415253891  0.2507635823648840  0.2512670268495698   T   T   T
  0.7489695254615532  0.2506026460570349  0.2510812663018515   T   T   T
 -0.0001568644018585  0.5000000000000000  0.2503617591413841   T   T   T
  0.2503305217831650  0.5000000000000000  0.2506738767229477   T   T   T
  0.5029933138632589  0.5000000000000000  0.2499856793273421   T   T   T
  0.7500126927780217  0.5000000000000000  0.2507198125139964   T   T   T
 -0.0003384441510893  0.7502554230846370  0.2502045053471365   T   T   T
  0.2509583458365320  0.7491448313530839  0.2513339628991901   T   T   T
  0.4994962415253891  0.7492364176351164  0.2512670268495698   T   T   T
  0.7489695254615532  0.7493973539429652  0.2510812663018515   T   T   T
  0.0004259851860292  0.0000000000000000  0.5004613116242261   T   T   T
  0.2505654008095656  0.0000000000000000  0.5004597582327227   T   T   T
  0.5002612220764088  0.0000000000000000  0.5004691029813402   T   T   T
  0.7503998577621527  0.0000000000000000  0.5004632931811117   T   T   T
 -0.0001729477608229  0.2498903647501168  0.5004644357903368   T   T   T
  0.2503095262369022  0.2501721549400627  0.5004698845290174   T   T   T
  0.5029792495583343  0.2494707526544001  0.5005130850752320   T   T   T
  0.7500031761616817  0.2502525000482237  0.5004732776740767   T   T   T
 -0.0049904911377895  0.5000000000000000  0.5004711695747632   T   T   T
  0.2358131202765049  0.5000000000000000  0.5005002648386579   T   T   T
 -0.0001729477608229  0.7501096352498832  0.5004644357903368   T   T   T
  0.2503095262369022  0.7498278450599370  0.5004698845290174   T   T   T
  0.5029792495583343  0.7505292473456000  0.5005130850752320   T   T   T
  0.7500031761616817  0.7497474999517768  0.5004732776740767   T   T   T
  0.0002997571473438  0.0000000000000000  0.7506422395857411   T   T   T
  0.2503776842153410  0.0000000000000000  0.7503383651019394   T   T   T
  0.5000906401015208  0.0000000000000000  0.7505307639725993   T   T   T
  0.7503202420729796  0.0000000000000000  0.7506941627963822   T   T   T
 -0.0003427402547488  0.2497375833776192  0.7507289649043108   T   T   T
  0.2509590196838129  0.2508529372186449  0.7496209533158792   T   T   T
  0.4995081362166574  0.2507511145984199  0.7497366429128226   T   T   T
  0.7489757995805433  0.2505894436067184  0.7498885429966585   T   T   T
 -0.0001829701010818  0.5000000000000000  0.7505701213538862   T   T   T
  0.2503116579455806  0.5000000000000000  0.7503090614892262   T   T   T
  0.5029861471477760  0.5000000000000000  0.7509950758031131   T   T   T
  0.7499963978973238  0.5000000000000000  0.7501945186354699   T   T   T
 -0.0003427402547488  0.7502624166223809  0.7507289649043108   T   T   T
  0.2509590196838129  0.7491470627813549  0.7496209533158792   T   T   T
  0.4995081362166574  0.7492488854015800  0.7497366429128226   T   T   T
  0.7489757995805433  0.7494105563932818  0.7498885429966585   T   T   T
  0.1256203257585439  0.1250217473507825  0.1255003878848787   T   T   T
  0.3756863441915574  0.1252402681318546  0.1257177057040695   T   T   T
  0.6255402949915772  0.1251218900694955  0.1256140990927296   T   T   T
  0.8757450948758305  0.1249872072261223  0.1254831413191899   T   T   T
  0.1256534151289474  0.3751627398242467  0.1255254969662521   T   T   T
  0.3754604465617030  0.3750831297448236  0.1261666809570276   T   T   T
  0.6256111528262067  0.3749603170668811  0.1249987688389349   T   T   T
  0.8753528333819868  0.3750475389743558  0.1255982699551733   T   T   T
  0.1256534151289474  0.6248372601757536  0.1255254969662521   T   T   T
  0.3754604465617030  0.6249168702551764  0.1261666809570276   T   T   T
  0.6256111528262067  0.6250396829331187  0.1249987688389349   T   T   T
  0.8753528333819868  0.6249524610256446  0.1255982699551733   T   T   T
  0.1256203257585439  0.8749782526492176  0.1255003878848787   T   T   T
  0.3756863441915574  0.8747597318681456  0.1257177057040695   T   T   T
  0.6255402949915772  0.8748781099305047  0.1256140990927296   T   T   T
  0.8757450948758305  0.8750127927738780  0.1254831413191899   T   T   T
  0.1256490438971738  0.1250395871919509  0.3756425244637036   T   T   T
  0.3754464358672492  0.1256451614560799  0.3755703990966394   T   T   T
  0.6255993156956269  0.1244981326932845  0.3754480583165595   T   T   T
  0.8753539520621150  0.1251218829839440  0.3755287644153866   T   T   T
  0.1246395204098998  0.3744769589708373  0.3749700414241861   T   T   T
  0.6252393402661781  0.3749251947649022  0.3754377208396845   T   T   T
  0.8750532590892232  0.3750330160159487  0.3755126338173219   T   T   T
  0.1246395204098998  0.6255230410291629  0.3749700414241861   T   T   T
  0.3804153098601378  0.6221785079458897  0.3783236362069518   T   T   T
  0.6252393402661781  0.6250748052350982  0.3754377208396845   T   T   T
  0.8750532590892232  0.6249669839840514  0.3755126338173219   T   T   T
  0.1256490438971738  0.8749604128080491  0.3756425244637036   T   T   T
  0.3754464358672492  0.8743548385439205  0.3755703990966394   T   T   T
  0.6255993156956269  0.8755018673067154  0.3754480583165595   T   T   T
  0.8753539520621150  0.8748781170160563  0.3755287644153866   T   T   T
  0.1256538303606044  0.1250390718324218  0.6253238553213660   T   T   T
  0.3754587923391858  0.1256364269488846  0.6253983609099253   T   T   T
  0.6256178776722877  0.1244958799773041  0.6255351067109423   T   T   T
  0.8753534729026851  0.1251142038839482  0.6254484308079542   T   T   T
  0.1246300335073059  0.3744717000447620  0.6260308814137328   T   T   T
  0.3804142396063051  0.3777958181379671  0.6226946883372477   T   T   T
  0.6252332654534785  0.3749228398513807  0.6255714057576087   T   T   T
  0.8750415485908606  0.3750268004756165  0.6254482367728574   T   T   T
  0.1246300335073059  0.6255282999552378  0.6260308814137328   T   T   T
  0.3804142396063051  0.6222041818620329  0.6226946883372477   T   T   T
  0.6252332654534785  0.6250771601486196  0.6255714057576087   T   T   T
  0.8750415485908606  0.6249731995243833  0.6254482367728574   T   T   T
  0.1256538303606044  0.8749609281675782  0.6253238553213660   T   T   T
  0.3754587923391858  0.8743635730511150  0.6253983609099253   T   T   T
  0.6256178776722877  0.8755041200226960  0.6255351067109423   T   T   T
  0.8753534729026851  0.8748857961160518  0.6254484308079542   T   T   T
  0.1256173109083754  0.1250206273998014  0.8754678735557964   T   T   T
  0.3756858224252507  0.1252359253957191  0.8752469136316305   T   T   T
  0.6255432745534931  0.1251223615031571  0.8753784117250614   T   T   T
  0.8757459586703861  0.1249770627007731  0.8755241518304842   T   T   T
  0.1256586549092922  0.3751671253237598  0.8754465651079457   T   T   T
  0.3754654661879235  0.3750875882590771  0.8748509609455974   T   T   T
  0.6256025969856122  0.3749638440332242  0.8759975079975202   T   T   T
  0.8753470146363950  0.3750400657741608  0.8753624120564980   T   T   T
  0.1256586549092922  0.6248328746762403  0.8754465651079457   T   T   T
  0.3754654661879235  0.6249124117409227  0.8748509609455974   T   T   T
  0.6256025969856122  0.6250361559667760  0.8759975079975202   T   T   T
  0.8753470146363950  0.6249599342258390  0.8753624120564980   T   T   T
  0.1256173109083754  0.8749793726001988  0.8754678735557964   T   T   T
  0.3756858224252507  0.8747640746042807  0.8752469136316305   T   T   T
  0.6255432745534931  0.8748776384968427  0.8753784117250614   T   T   T
  0.8757459586703861  0.8750229372992268  0.8755241518304842   T   T   T
  0.3990004536266153  0.5000000000000000  0.5005144021547331   T   T   T
 
  0.00000000E+00  0.00000000E+00  0.00000000E+00
  0.00000000E+00  0.00000000E+00  0.00000000E+00
  0.00000000E+00  0.00000000E+00  0.00000000E+00
  0.00000000E+00  0.00000000E+00  0.00000000E+00
  0.00000000E+00  0.00000000E+00  0.00000000E+00
  0.00000000E+00  0.00000000E+00  0.00000000E+00
  0.00000000E+00  0.00000000E+00  0.00000000E+00
  0.00000000E+00  0.00000000E+00  0.00000000E+00
  0.00000000E+00  0.00000000E+00  0.00000000E+00
  0.00000000E+00  0.00000000E+00  0.00000000E+00
  0.00000000E+00  0.00000000E+00  0.00000000E+00
  0.00000000E+00  0.00000000E+00  0.00000000E+00
  0.00000000E+00  0.00000000E+00  0.00000000E+00
  0.00000000E+00  0.00000000E+00  0.00000000E+00
  0.00000000E+00  0.00000000E+00  0.00000000E+00
  0.00000000E+00  0.00000000E+00  0.00000000E+00
  0.00000000E+00  0.00000000E+00  0.00000000E+00
  0.00000000E+00  0.00000000E+00  0.00000000E+00
  0.00000000E+00  0.00000000E+00  0.00000000E+00
  0.00000000E+00  0.00000000E+00  0.00000000E+00
  0.00000000E+00  0.00000000E+00  0.00000000E+00
  0.00000000E+00  0.00000000E+00  0.00000000E+00
  0.00000000E+00  0.00000000E+00  0.00000000E+00
  0.00000000E+00  0.00000000E+00  0.00000000E+00
  0.00000000E+00  0.00000000E+00  0.00000000E+00
  0.00000000E+00  0.00000000E+00  0.00000000E+00
  0.00000000E+00  0.00000000E+00  0.00000000E+00
  0.00000000E+00  0.00000000E+00  0.00000000E+00
  0.00000000E+00  0.00000000E+00  0.00000000E+00
  0.00000000E+00  0.00000000E+00  0.00000000E+00
  0.00000000E+00  0.00000000E+00  0.00000000E+00
  0.00000000E+00  0.00000000E+00  0.00000000E+00
  0.00000000E+00  0.00000000E+00  0.00000000E+00
  0.00000000E+00  0.00000000E+00  0.00000000E+00
  0.00000000E+00  0.00000000E+00  0.00000000E+00
  0.00000000E+00  0.00000000E+00  0.00000000E+00
  0.00000000E+00  0.00000000E+00  0.00000000E+00
  0.00000000E+00  0.00000000E+00  0.00000000E+00
  0.00000000E+00  0.00000000E+00  0.00000000E+00
  0.00000000E+00  0.00000000E+00  0.00000000E+00
  0.00000000E+00  0.00000000E+00  0.00000000E+00
  0.00000000E+00  0.00000000E+00  0.00000000E+00
  0.00000000E+00  0.00000000E+00  0.00000000E+00
  0.00000000E+00  0.00000000E+00  0.00000000E+00
  0.00000000E+00  0.00000000E+00  0.00000000E+00
  0.00000000E+00  0.00000000E+00  0.00000000E+00
  0.00000000E+00  0.00000000E+00  0.00000000E+00
  0.00000000E+00  0.00000000E+00  0.00000000E+00
  0.00000000E+00  0.00000000E+00  0.00000000E+00
  0.00000000E+00  0.00000000E+00  0.00000000E+00
  0.00000000E+00  0.00000000E+00  0.00000000E+00
  0.00000000E+00  0.00000000E+00  0.00000000E+00
  0.00000000E+00  0.00000000E+00  0.00000000E+00
  0.00000000E+00  0.00000000E+00  0.00000000E+00
  0.00000000E+00  0.00000000E+00  0.00000000E+00
  0.00000000E+00  0.00000000E+00  0.00000000E+00
  0.00000000E+00  0.00000000E+00  0.00000000E+00
  0.00000000E+00  0.00000000E+00  0.00000000E+00
  0.00000000E+00  0.00000000E+00  0.00000000E+00
  0.00000000E+00  0.00000000E+00  0.00000000E+00
  0.00000000E+00  0.00000000E+00  0.00000000E+00
  0.00000000E+00  0.00000000E+00  0.00000000E+00
  0.00000000E+00  0.00000000E+00  0.00000000E+00
  0.00000000E+00  0.00000000E+00  0.00000000E+00
  0.00000000E+00  0.00000000E+00  0.00000000E+00
  0.00000000E+00  0.00000000E+00  0.00000000E+00
  0.00000000E+00  0.00000000E+00  0.00000000E+00
  0.00000000E+00  0.00000000E+00  0.00000000E+00
  0.00000000E+00  0.00000000E+00  0.00000000E+00
  0.00000000E+00  0.00000000E+00  0.00000000E+00
  0.00000000E+00  0.00000000E+00  0.00000000E+00
  0.00000000E+00  0.00000000E+00  0.00000000E+00
  0.00000000E+00  0.00000000E+00  0.00000000E+00
  0.00000000E+00  0.00000000E+00  0.00000000E+00
  0.00000000E+00  0.00000000E+00  0.00000000E+00
  0.00000000E+00  0.00000000E+00  0.00000000E+00
  0.00000000E+00  0.00000000E+00  0.00000000E+00
  0.00000000E+00  0.00000000E+00  0.00000000E+00
  0.00000000E+00  0.00000000E+00  0.00000000E+00
  0.00000000E+00  0.00000000E+00  0.00000000E+00
  0.00000000E+00  0.00000000E+00  0.00000000E+00
  0.00000000E+00  0.00000000E+00  0.00000000E+00
  0.00000000E+00  0.00000000E+00  0.00000000E+00
  0.00000000E+00  0.00000000E+00  0.00000000E+00
  0.00000000E+00  0.00000000E+00  0.00000000E+00
  0.00000000E+00  0.00000000E+00  0.00000000E+00
  0.00000000E+00  0.00000000E+00  0.00000000E+00
  0.00000000E+00  0.00000000E+00  0.00000000E+00
  0.00000000E+00  0.00000000E+00  0.00000000E+00
  0.00000000E+00  0.00000000E+00  0.00000000E+00
  0.00000000E+00  0.00000000E+00  0.00000000E+00
  0.00000000E+00  0.00000000E+00  0.00000000E+00
  0.00000000E+00  0.00000000E+00  0.00000000E+00
  0.00000000E+00  0.00000000E+00  0.00000000E+00
  0.00000000E+00  0.00000000E+00  0.00000000E+00
  0.00000000E+00  0.00000000E+00  0.00000000E+00
  0.00000000E+00  0.00000000E+00  0.00000000E+00
  0.00000000E+00  0.00000000E+00  0.00000000E+00
  0.00000000E+00  0.00000000E+00  0.00000000E+00
  0.00000000E+00  0.00000000E+00  0.00000000E+00
  0.00000000E+00  0.00000000E+00  0.00000000E+00
  0.00000000E+00  0.00000000E+00  0.00000000E+00
  0.00000000E+00  0.00000000E+00  0.00000000E+00
  0.00000000E+00  0.00000000E+00  0.00000000E+00
  0.00000000E+00  0.00000000E+00  0.00000000E+00
  0.00000000E+00  0.00000000E+00  0.00000000E+00
  0.00000000E+00  0.00000000E+00  0.00000000E+00
  0.00000000E+00  0.00000000E+00  0.00000000E+00
  0.00000000E+00  0.00000000E+00  0.00000000E+00
  0.00000000E+00  0.00000000E+00  0.00000000E+00
  0.00000000E+00  0.00000000E+00  0.00000000E+00
  0.00000000E+00  0.00000000E+00  0.00000000E+00
  0.00000000E+00  0.00000000E+00  0.00000000E+00
  0.00000000E+00  0.00000000E+00  0.00000000E+00
  0.00000000E+00  0.00000000E+00  0.00000000E+00
  0.00000000E+00  0.00000000E+00  0.00000000E+00
  0.00000000E+00  0.00000000E+00  0.00000000E+00
  0.00000000E+00  0.00000000E+00  0.00000000E+00
  0.00000000E+00  0.00000000E+00  0.00000000E+00
  0.00000000E+00  0.00000000E+00  0.00000000E+00
  0.00000000E+00  0.00000000E+00  0.00000000E+00
  0.00000000E+00  0.00000000E+00  0.00000000E+00
  0.00000000E+00  0.00000000E+00  0.00000000E+00
  0.00000000E+00  0.00000000E+00  0.00000000E+00
  0.00000000E+00  0.00000000E+00  0.00000000E+00
  0.00000000E+00  0.00000000E+00  0.00000000E+00
  0.00000000E+00  0.00000000E+00  0.00000000E+00
  0.00000000E+00  0.00000000E+00  0.00000000E+00
