Cubic Mo + interstitials
1.0
   12.6023753605413624   0.0000000000000000   0.0000000000000000
   0.0000000000000000   12.6025129674090639   0.0000000000000000
   0.0000000000000000   0.0000000000000000   12.6023753605413624
  Mo  O
  127 1
Selective dynamics
Direct
   0.3758522847016735   0.3758519818329698   0.3758522847016735  T  T  T
   0.7470338277699941   0.5000000000000000   0.5000000000000000  T  T  T
  -0.0000000000000000   0.0000000000000000  -0.0000000000000000  T  T  T
   0.2495598092385408   0.0000000000000000  -0.0000000000000000  T  T  T
   0.5000000000000000   0.0000000000000000  -0.0000000000000000  T  T  T
   0.7504401907614592   0.0000000000000000  -0.0000000000000000  T  T  T
  -0.0000000000000000   0.2495597499830936  -0.0000000000000000  T  T  T
   0.2500433827021816   0.2500433464677274  -0.0000000000000000  T  T  T
   0.5000000000000000   0.2500366862592797  -0.0000000000000000  T  T  T
   0.7499566172978185   0.2500433464677274  -0.0000000000000000  T  T  T
  -0.0000000000000000   0.5000000000000000  -0.0000000000000000  T  T  T
   0.2500367138821278   0.5000000000000000  -0.0000000000000000  T  T  T
   0.5000000000000000   0.5000000000000000  -0.0000000000000000  T  T  T
   0.7499632861178724   0.5000000000000000  -0.0000000000000000  T  T  T
  -0.0000000000000000   0.7504402500169065  -0.0000000000000000  T  T  T
   0.2500433827021816   0.7499566535322726  -0.0000000000000000  T  T  T
   0.5000000000000000   0.7499633137407202  -0.0000000000000000  T  T  T
   0.7499566172978185   0.7499566535322726  -0.0000000000000000  T  T  T
  -0.0000000000000000   0.0000000000000000   0.2495598092385408  T  T  T
   0.2500433391603378   0.0000000000000000   0.2500433391603378  T  T  T
   0.5000000000000000   0.0000000000000000   0.2500366737873626  T  T  T
   0.7499566608396622   0.0000000000000000   0.2500433391603378  T  T  T
  -0.0000000000000000   0.2500433464677274   0.2500433827021816  T  T  T
   0.2509235470823385   0.2509236108854392   0.2509235470823385  T  T  T
   0.5000000000000000   0.2504158814838462   0.2504159397072172  T  T  T
   0.7490764529176616   0.2509236108854392   0.2509235470823385  T  T  T
  -0.0000000000000000   0.5000000000000000   0.2500367138821278  T  T  T
   0.2504160665922222   0.5000000000000000   0.2504160665922222  T  T  T
   0.5000000000000000   0.5000000000000000   0.2529661722300061  T  T  T
   0.7495839334077778   0.5000000000000000   0.2504160665922222  T  T  T
  -0.0000000000000000   0.7499566535322726   0.2500433827021816  T  T  T
   0.2509235470823385   0.7490763891145609   0.2509235470823385  T  T  T
   0.5000000000000000   0.7495841185161537   0.2504159397072172  T  T  T
   0.7490764529176616   0.7490763891145609   0.2509235470823385  T  T  T
  -0.0000000000000000   0.0000000000000000   0.5000000000000000  T  T  T
   0.2500366737873626   0.0000000000000000   0.5000000000000000  T  T  T
   0.5000000000000000   0.0000000000000000   0.5000000000000000  T  T  T
   0.7499633262126375   0.0000000000000000   0.5000000000000000  T  T  T
  -0.0000000000000000   0.2500366862592797   0.5000000000000000  T  T  T
   0.2504159397072172   0.2504158814838462   0.5000000000000000  T  T  T
   0.5000000000000000   0.2529653751129540   0.5000000000000000  T  T  T
   0.7495840602927827   0.2504158814838462   0.5000000000000000  T  T  T
  -0.0000000000000000   0.5000000000000000   0.5000000000000000  T  T  T
   0.2529661722300061   0.5000000000000000   0.5000000000000000  T  T  T
  -0.0000000000000000   0.7499633137407202   0.5000000000000000  T  T  T
   0.2504159397072172   0.7495841185161537   0.5000000000000000  T  T  T
   0.5000000000000000   0.7470346248870462   0.5000000000000000  T  T  T
   0.7495840602927827   0.7495841185161537   0.5000000000000000  T  T  T
  -0.0000000000000000   0.0000000000000000   0.7504401907614592  T  T  T
   0.2500433391603378   0.0000000000000000   0.7499566608396622  T  T  T
   0.5000000000000000   0.0000000000000000   0.7499633262126375  T  T  T
   0.7499566608396622   0.0000000000000000   0.7499566608396622  T  T  T
  -0.0000000000000000   0.2500433464677274   0.7499566172978185  T  T  T
   0.2509235470823385   0.2509236108854392   0.7490764529176616  T  T  T
   0.5000000000000000   0.2504158814838462   0.7495840602927827  T  T  T
   0.7490764529176616   0.2509236108854392   0.7490764529176616  T  T  T
  -0.0000000000000000   0.5000000000000000   0.7499632861178724  T  T  T
   0.2504160665922222   0.5000000000000000   0.7495839334077778  T  T  T
   0.5000000000000000   0.5000000000000000   0.7470338277699941  T  T  T
   0.7495839334077778   0.5000000000000000   0.7495839334077778  T  T  T
  -0.0000000000000000   0.7499566535322726   0.7499566172978185  T  T  T
   0.2509235470823385   0.7490763891145609   0.7490764529176616  T  T  T
   0.5000000000000000   0.7495841185161537   0.7495840602927827  T  T  T
   0.7490764529176616   0.7490763891145609   0.7490764529176616  T  T  T
   0.1249624585595081   0.1249624260079592   0.1249624585595081  T  T  T
   0.3751774964014470   0.1252698255279339   0.1252697926202222  T  T  T
   0.6248225035985530   0.1252698255279339   0.1252697926202222  T  T  T
   0.8750375414404920   0.1249624260079592   0.1249624585595081  T  T  T
   0.1252698068950391   0.3751775091451657   0.1252698068950391  T  T  T
   0.3751517300878861   0.3751517128187321   0.1248989935580119  T  T  T
   0.6248482699121138   0.3751517128187321   0.1248989935580119  T  T  T
   0.8747301931049608   0.3751775091451657   0.1252698068950391  T  T  T
   0.1252698068950391   0.6248224908548343   0.1252698068950391  T  T  T
   0.3751517300878861   0.6248482871812678   0.1248989935580119  T  T  T
   0.6248482699121138   0.6248482871812678   0.1248989935580119  T  T  T
   0.8747301931049608   0.6248224908548343   0.1252698068950391  T  T  T
   0.1249624585595081   0.8750375739920409   0.1249624585595081  T  T  T
   0.3751774964014470   0.8747301744720660   0.1252697926202222  T  T  T
   0.6248225035985530   0.8747301744720660   0.1252697926202222  T  T  T
   0.8750375414404920   0.8750375739920409   0.1249624585595081  T  T  T
   0.1252697926202222   0.1252698255279339   0.3751774964014470  T  T  T
   0.3751516999083194   0.1248988244498854   0.3751516999083194  T  T  T
   0.6248483000916807   0.1248988244498854   0.3751516999083194  T  T  T
   0.8747302073797777   0.1252698255279339   0.3751774964014470  T  T  T
   0.1248989935580119   0.3751517128187321   0.3751517300878861  T  T  T
   0.6241477152983264   0.3758519818329698   0.3758522847016735  T  T  T
   0.8751010064419880   0.3751517128187321   0.3751517300878861  T  T  T
   0.1248989935580119   0.6248482871812678   0.3751517300878861  T  T  T
   0.3758522847016735   0.6241480181670301   0.3758522847016735  T  T  T
   0.6241477152983264   0.6241480181670301   0.3758522847016735  T  T  T
   0.8751010064419880   0.6248482871812678   0.3751517300878861  T  T  T
   0.1252697926202222   0.8747301744720660   0.3751774964014470  T  T  T
   0.3751516999083194   0.8751011755501146   0.3751516999083194  T  T  T
   0.6248483000916807   0.8751011755501146   0.3751516999083194  T  T  T
   0.8747302073797777   0.8747301744720660   0.3751774964014470  T  T  T
   0.1252697926202222   0.1252698255279339   0.6248225035985530  T  T  T
   0.3751516999083194   0.1248988244498854   0.6248483000916807  T  T  T
   0.6248483000916807   0.1248988244498854   0.6248483000916807  T  T  T
   0.8747302073797777   0.1252698255279339   0.6248225035985530  T  T  T
   0.1248989935580119   0.3751517128187321   0.6248482699121138  T  T  T
   0.3758522847016735   0.3758519818329698   0.6241477152983264  T  T  T
   0.6241477152983264   0.3758519818329698   0.6241477152983264  T  T  T
   0.8751010064419880   0.3751517128187321   0.6248482699121138  T  T  T
   0.1248989935580119   0.6248482871812678   0.6248482699121138  T  T  T
   0.3758522847016735   0.6241480181670301   0.6241477152983264  T  T  T
   0.6241477152983264   0.6241480181670301   0.6241477152983264  T  T  T
   0.8751010064419880   0.6248482871812678   0.6248482699121138  T  T  T
   0.1252697926202222   0.8747301744720660   0.6248225035985530  T  T  T
   0.3751516999083194   0.8751011755501146   0.6248483000916807  T  T  T
   0.6248483000916807   0.8751011755501146   0.6248483000916807  T  T  T
   0.8747302073797777   0.8747301744720660   0.6248225035985530  T  T  T
   0.1249624585595081   0.1249624260079592   0.8750375414404920  T  T  T
   0.3751774964014470   0.1252698255279339   0.8747302073797777  T  T  T
   0.6248225035985530   0.1252698255279339   0.8747302073797777  T  T  T
   0.8750375414404920   0.1249624260079592   0.8750375414404920  T  T  T
   0.1252698068950391   0.3751775091451657   0.8747301931049608  T  T  T
   0.3751517300878861   0.3751517128187321   0.8751010064419880  T  T  T
   0.6248482699121138   0.3751517128187321   0.8751010064419880  T  T  T
   0.8747301931049608   0.3751775091451657   0.8747301931049608  T  T  T
   0.1252698068950391   0.6248224908548343   0.8747301931049608  T  T  T
   0.3751517300878861   0.6248482871812678   0.8751010064419880  T  T  T
   0.6248482699121138   0.6248482871812678   0.8751010064419880  T  T  T
   0.8747301931049608   0.6248224908548343   0.8747301931049608  T  T  T
   0.1249624585595081   0.8750375739920409   0.8750375414404920  T  T  T
   0.3751774964014470   0.8747301744720660   0.8747302073797777  T  T  T
   0.6248225035985530   0.8747301744720660   0.8747302073797777  T  T  T
   0.8750375414404920   0.8750375739920409   0.8750375414404920  T  T  T
   0.4372936824704327   0.5000000000000003   0.5620750000000000  T  T  T
