O    Mo
    1.000000000000000     
  12.6023753605413997   0.0000000000000000   0.0000000000000000
   0.0000000000000000  12.6025129674090994   0.0000000000000000
   0.0000000000000000   0.0000000000000000  12.6023753605413997
O    Mo
1  128  
Selective dynamics
Direct
  0.5312532267505430  0.2187500000000000  0.3750000000000000 T T T
  0.3716592933045600  0.3783358939988450  0.3750000000000000 T T T
  0.7509787941720349  0.5012757376120620  0.5003194008628780 T T T
  0.9998687061141350  0.9999654319604760  0.9998314680337830 T T T
  0.2495195050626360  0.9994930880875760  0.9999160297358290 T T T
  0.4999283702465790  0.9998899828152470  0.9993468194140580 T T T
  0.7501927680442010  0.9998072358809300  0.9998544668741470 T T T
  0.0000198577394670  0.2500508706144660  0.9997909303784810 T T T
  0.2495110840722890  0.2500724787265800  0.9993981417237170 T T T
  0.4999372429247870  0.2500630886641200  0.9967901817047180 T T T
  0.7501106932481389  0.2500724787265800  0.9993457771613020 T T T
  0.9998687061141350  0.5001405492146060  0.9999568626043071 T T T
  0.2492032389446090  0.5007965887804530  0.9999779984504470 T T T
  0.4999283702465790  0.5004887296605530  0.9993996389834050 T T T
  0.7505090341622280  0.5004824409870990  0.9999164355887660 T T T
  0.9999253871950560  0.7500750471251580  0.0000686459104600 T T T
  0.2498587354595470  0.7501315675628600  0.9999574752376430 T T T
  0.4999494399437480  0.7499800669067650  0.9997920116160940 T T T
  0.7500350390983070  0.7501315675628600  0.9998308460647610 T T T
  0.0001267498477873  0.9996169554410840  0.2496999708141490 T T T
  0.2487248944934000  0.9990234139232970  0.2496766698201470 T T T
  0.4996930131743580  0.9973505126327570  0.2482227965560140 T T T
  0.7518886160449160  0.9981129324775890  0.2491653448703910 T T T
  0.0001978954886397  0.2501359772666660  0.2498751420180980 T T T
  0.2490395469270300  0.2503065628946640  0.2493512991257700 T T T
  0.4972674204574330  0.2527288289035430  0.2336776344703610 T T T
  0.7526449164128550  0.2503065628946640  0.2482191357677830 T T T
  0.0001267498477873  0.5002157014572080  0.2498818431445140 T T T
  0.2496347163662800  0.5003652561663540  0.2501919240868770 T T T
  0.4996930131743580  0.5009619537841270  0.2493555347092950 T T T
  0.7509787941720349  0.5012757376120620  0.2496805991371220 T T T
  0.0001247895325278  0.7498756911541880  0.2500462844208040 T T T
  0.2497819397278820  0.7498718466947590  0.2498811028944270 T T T
  0.4998650992471170  0.7498001340761180  0.2498760887622780 T T T
  0.7503834633572380  0.7498718466947590  0.2497005113315890 T T T
  0.0001267498477873  0.9996169554410840  0.5003000291858510 T T T
  0.2487248944934000  0.9990234139232970  0.5003233301798530 T T T
  0.4996930131743580  0.9973505126327570  0.5017772034439860 T T T
  0.7518886160449160  0.9981129324775890  0.5008346551296090 T T T
  0.0001978954886397  0.2501359772666660  0.5001248579819020 T T T
  0.2490395469270300  0.2503065628946640  0.5006487008742300 T T T
  0.4972674204574330  0.2527288289035430  0.5163223655296389 T T T
  0.7526449164128550  0.2503065628946640  0.5017808642322170 T T T
  0.0001267498477873  0.5002157014572080  0.5001181568554860 T T T
  0.2496347163662800  0.5003652561663540  0.4998080759131230 T T T
  0.4996930131743580  0.5009619537841270  0.5006444652907051 T T T
  0.0001247895325278  0.7498756911541880  0.4999537155791960 T T T
  0.2497819397278820  0.7498718466947590  0.5001188971055730 T T T
  0.4998650992471170  0.7498001340761180  0.5001239112377220 T T T
  0.7503834633572380  0.7498718466947590  0.5002994886684110 T T T
  0.9998687061141350  0.9999654319604760  0.7501685319662170 T T T
  0.2495195050626360  0.9994930880875760  0.7500839702641710 T T T
  0.4999283702465790  0.9998899828152470  0.7506531805859420 T T T
  0.7501927680442010  0.9998072358809300  0.7501455331258530 T T T
  0.0000198577394670  0.2500508706144660  0.7502090696215190 T T T
  0.2495110840722890  0.2500724787265800  0.7506018582762830 T T T
  0.4999372429247870  0.2500630886641200  0.7532098182952820 T T T
  0.7501106932481389  0.2500724787265800  0.7506542228386980 T T T
  0.9998687061141350  0.5001405492146060  0.7500431373956929 T T T
  0.2492032389446090  0.5007965887804530  0.7500220015495530 T T T
  0.4999283702465790  0.5004887296605530  0.7506003610165950 T T T
  0.7505090341622280  0.5004824409870990  0.7500835644112340 T T T
  0.9999253871950560  0.7500750471251580  0.7499313540895400 T T T
  0.2498587354595470  0.7501315675628600  0.7500425247623570 T T T
  0.4999494399437480  0.7499800669067650  0.7502079883839060 T T T
  0.7500350390983070  0.7501315675628600  0.7501691539352390 T T T
  0.1246075593736650  0.1248369862984400  0.1247489664744490 T T T
  0.3736439638207050  0.1242716781763630  0.1233724126133420 T T T
  0.6258671168300650  0.1241290141672450  0.1239327286299100 T T T
  0.8754483323865400  0.1250251506550270  0.1246942683681030 T T T
  0.1247975322765030  0.3751774874867520  0.1247634264939350 T T T
  0.3737861799103540  0.3762170518037990  0.1228124677229160 T T T
  0.6257249007404160  0.3763597158129100  0.1233727837394840 T T T
  0.8752583594837090  0.3749893231301580  0.1247087283875890 T T T
  0.1250683207043440  0.6249320364065341  0.1249114004391460 T T T
  0.3748224533657170  0.6252009986277260  0.1247644271599310 T T T
  0.6251640975249440  0.6253938551958170  0.1247486677924030 T T T
  0.8754426881559780  0.6248789759325321  0.1245309335456280 T T T
  0.1251211092802290  0.8745597666508050  0.1245336030459190 T T T
  0.3750093774364700  0.8747431917130370  0.1247108922790330 T T T
  0.6249771734541910  0.8745503351449530  0.1246951329115120 T T T
  0.8753898995800919  0.8746128271248070  0.1241531361523940 T T T
  0.1231901513369850  0.1249398061393240  0.3750000000000000 T T T
  0.3647160910967240  0.1210522524098680  0.3750000000000000 T T T
  0.6358858752092620  0.1141052068786760  0.3750000000000000 T T T
  0.8770396309205640  0.1248515416032630  0.3750000000000000 T T T
  0.1244053801497670  0.3749882473274010  0.3750000000000000 T T T
  0.6289426730014260  0.3852829395300360  0.3750000000000000 T T T
  0.8758244021077810  0.3750765118634620  0.3750000000000000 T T T
  0.1249433901603610  0.6250562602123960  0.3750000000000000 T T T
  0.3750105259749360  0.6255949282598150  0.3750000000000000 T T T
  0.6250606590076940  0.6268172323154890  0.3750000000000000 T T T
  0.8754080037409440  0.6253617434648860  0.3750000000000000 T T T
  0.1246396992487390  0.8745938182741850  0.3750000000000000 T T T
  0.3749215960037800  0.8741754959349350  0.3750000000000000 T T T
  0.6251495889788570  0.8729531918792550  0.3750000000000000 T T T
  0.8757116946525660  0.8742883350216960  0.3750000000000000 T T T
  0.1246075593736650  0.1248369862984400  0.6252510335255510 T T T
  0.3736439638207050  0.1242716781763630  0.6266275873866580 T T T
  0.6258671168300650  0.1241290141672450  0.6260672713700900 T T T
  0.8754483323865400  0.1250251506550270  0.6253057316318970 T T T
  0.1247975322765030  0.3751774874867520  0.6252365735060650 T T T
  0.3737861799103540  0.3762170518037990  0.6271875322770840 T T T
  0.6257249007404160  0.3763597158129100  0.6266272162605160 T T T
  0.8752583594837090  0.3749893231301580  0.6252912716124110 T T T
  0.1250683207043440  0.6249320364065341  0.6250885995608541 T T T
  0.3748224533657170  0.6252009986277260  0.6252355728400690 T T T
  0.6251640975249440  0.6253938551958170  0.6252513322075970 T T T
  0.8754426881559780  0.6248789759325321  0.6254690664543719 T T T
  0.1251211092802290  0.8745597666508050  0.6254663969540810 T T T
  0.3750093774364700  0.8747431917130370  0.6252891077209670 T T T
  0.6249771734541910  0.8745503351449530  0.6253048670884880 T T T
  0.8753898995800919  0.8746128271248070  0.6258468638476060 T T T
  0.1247041595564300  0.1249726966757190  0.8750000000000000 T T T
  0.3746173770751680  0.1246535279863390  0.8750000000000000 T T T
  0.6252656971030750  0.1247358495228920  0.8750000000000000 T T T
  0.8752580351493650  0.1249220872992540  0.8750000000000000 T T T
  0.1247710914311280  0.3749669875521560  0.8750000000000000 T T T
  0.3745350543183930  0.3754649492561060  0.8750000000000000 T T T
  0.6253480198598570  0.3753826277195460  0.8750000000000000 T T T
  0.8751911032746660  0.3750175969286150  0.8750000000000000 T T T
  0.1251098746854280  0.6248900724301120  0.8750000000000000 T T T
  0.3750328478713240  0.6252285803227120  0.8750000000000000 T T T
  0.6250277904724020  0.6252969608535750  0.8750000000000000 T T T
  0.8750614160520480  0.6249050118811680  0.8750000000000000 T T T
  0.1250958147093610  0.8749383444273060  0.8750000000000000 T T T
  0.3749818704661860  0.8748086171157040  0.8750000000000000 T T T
  0.6250787678775400  0.8747402365848340  0.8750000000000000 T T T
  0.8750754760281230  0.8749234049762510  0.8750000000000000 T T T
