O    Mo
    1.000000000000000     
  12.6023753605413997   0.0000000000000000   0.0000000000000000
   0.0000000000000000  12.6025129674090994   0.0000000000000000
   0.0000000000000000   0.0000000000000000  12.6023753605413997
O    Mo
1  128  
Selective dynamics
Direct
  0.5000000000000000  0.1875000000000000  0.3750000000000000 T T T
  0.3725614536238590  0.3792339506245007  0.3750000000000000 T T T
  0.7503664799106645  0.5003679259289548  0.4998071671190785 T T T
  0.0000000000000000  0.0000188903153210  0.9997902089298047 T T T
  0.2497885156825758  0.9998260949764608  0.9998544438618026 T T T
  0.5000000000000000  0.0000177157383071  0.9992135194424639 T T T
  0.7502114843174245  0.9998260949764608  0.9998544438618026 T T T
  0.0000000000000000  0.2501017412289303  0.9996563451804136 T T T
  0.2497595956436020  0.2501449574531658  0.9994744980561290 T T T
  0.5000000000000000  0.2501261773282391  0.9967830618169008 T T T
  0.7502404043563979  0.2501449574531658  0.9994744980561290 T T T
  0.0000000000000000  0.5001930720348422  0.0000409980708511 T T T
  0.2491559834465261  0.5007532587596054  0.9999783812910388 T T T
  0.5000000000000000  0.5007397092132957  0.9993191585811690 T T T
  0.7508440165534737  0.5007532587596054  0.9999783812910388 T T T
  0.0000000000000000  0.7501500942503126  0.0000691180229902 T T T
  0.2499115782329840  0.7502631351257183  0.9998728041392696 T T T
  0.5000000000000000  0.7499601338135360  0.9999265404044168 T T T
  0.7500884217670158  0.7502631351257183  0.9998728041392696 T T T
  0.0000000000000000  0.9994910909817836  0.2495808836276485 T T T
  0.2478138763435740  0.9984094142503598  0.2491623243474663 T T T
  0.5000000000000000  0.9957660493754994  0.2475614536238589 T T T
  0.7521861236564260  0.9984094142503598  0.2491623243474663 T T T
  0.0000000000000000  0.2502719545333300  0.2497455291412019 T T T
  0.2489337661244276  0.2506131257893274  0.2488778921681692 T T T
  0.5000000000000000  0.2554576578070807  0.2336750492081814 T T T
  0.7510662338755724  0.2506131257893274  0.2488778921681692 T T T
  0.0000000000000000  0.5001742228147925  0.2499446282883816 T T T
  0.2496335200893353  0.5003679259289548  0.2501928328809215 T T T
  0.5000000000000000  0.5008588834582806  0.2498269299304125 T T T
  0.7503664799106645  0.5003679259289548  0.2501928328809215 T T T
  0.0000000000000000  0.7497513823083777  0.2500465830986553 T T T
  0.2497405898511200  0.7497436933895129  0.2498189847394122 T T T
  0.5000000000000000  0.7496002681522302  0.2500047898727337 T T T
  0.7502594101488800  0.7497436933895129  0.2498189847394122 T T T
  0.0000000000000000  0.9994910909817836  0.5004191163723515 T T T
  0.2478138763435740  0.9984094142503598  0.5008376756525337 T T T
  0.5000000000000000  0.9957660493754994  0.5024385463761409 T T T
  0.7521861236564260  0.9984094142503598  0.5008376756525337 T T T
  0.0000000000000000  0.2502719545333300  0.5002544708587980 T T T
  0.2489337661244276  0.2506131257893274  0.5011221078318309 T T T
  0.5000000000000000  0.2554576578070807  0.5163249507918186 T T T
  0.7510662338755724  0.2506131257893274  0.5011221078318309 T T T
  0.0000000000000000  0.5001742228147925  0.5000553717116184 T T T
  0.2496335200893353  0.5003679259289548  0.4998071671190785 T T T
  0.5000000000000000  0.5008588834582806  0.5001730700695873 T T T
  0.0000000000000000  0.7497513823083777  0.4999534169013447 T T T
  0.2497405898511200  0.7497436933895129  0.5001810152605879 T T T
  0.5000000000000000  0.7496002681522302  0.4999952101272663 T T T
  0.7502594101488800  0.7497436933895129  0.5001810152605879 T T T
  0.0000000000000000  0.0000188903153210  0.7502097910701953 T T T
  0.2497885156825758  0.9998260949764608  0.7501455561381973 T T T
  0.5000000000000000  0.0000177157383071  0.7507864805575361 T T T
  0.7502114843174245  0.9998260949764608  0.7501455561381973 T T T
  0.0000000000000000  0.2501017412289303  0.7503436548195864 T T T
  0.2497595956436020  0.2501449574531658  0.7505255019438710 T T T
  0.5000000000000000  0.2501261773282391  0.7532169381830992 T T T
  0.7502404043563979  0.2501449574531658  0.7505255019438710 T T T
  0.0000000000000000  0.5001930720348422  0.7499590019291490 T T T
  0.2491559834465261  0.5007532587596054  0.7500216187089613 T T T
  0.5000000000000000  0.5007397092132957  0.7506808414188310 T T T
  0.7508440165534737  0.5007532587596054  0.7500216187089613 T T T
  0.0000000000000000  0.7501500942503126  0.7499308819770097 T T T
  0.2499115782329840  0.7502631351257183  0.7501271958607305 T T T
  0.5000000000000000  0.7499601338135360  0.7500734595955834 T T T
  0.7500884217670158  0.7502631351257183  0.7501271958607305 T T T
  0.1244744980561290  0.1248550425468342  0.1247595956436020 T T T
  0.3738778921681692  0.1243868742106725  0.1239337661244276 T T T
  0.6261221078318309  0.1243868742106725  0.1239337661244276 T T T
  0.8755255019438710  0.1248550425468342  0.1247595956436020 T T T
  0.1248544438618026  0.3751739050235392  0.1247885156825757 T T T
  0.3741623243474663  0.3765905857496402  0.1228138763435741 T T T
  0.6258376756525337  0.3765905857496402  0.1228138763435741 T T T
  0.8751455561381973  0.3751739050235392  0.1247885156825757 T T T
  0.1248728041392694  0.6247368648742817  0.1249115782329840 T T T
  0.3748189847394122  0.6252563066104871  0.1247405898511199 T T T
  0.6251810152605879  0.6252563066104871  0.1247405898511199 T T T
  0.8751271958607305  0.6247368648742817  0.1249115782329840 T T T
  0.1249783812910387  0.8742467412403946  0.1241559834465262 T T T
  0.3751928328809215  0.8746320740710452  0.1246335200893353 T T T
  0.6248071671190785  0.8746320740710452  0.1246335200893353 T T T
  0.8750216187089613  0.8742467412403946  0.1241559834465262 T T T
  0.1217830618169007  0.1248738226717608  0.3750000000000000 T T T
  0.3586750492081814  0.1195423421929194  0.3750000000000000 T T T
  0.6413249507918186  0.1195423421929194  0.3750000000000000 T T T
  0.8782169381830992  0.1248738226717608  0.3750000000000000 T T T
  0.1242135194424638  0.3749822842616931  0.3750000000000000 T T T
  0.6274385463761409  0.3792339506245007  0.3750000000000000 T T T
  0.8757864805575361  0.3749822842616931  0.3750000000000000 T T T
  0.1249265404044168  0.6250398661864640  0.3750000000000000 T T T
  0.3750047898727337  0.6253997318477698  0.3750000000000000 T T T
  0.6249952101272662  0.6253997318477698  0.3750000000000000 T T T
  0.8750734595955834  0.6250398661864640  0.3750000000000000 T T T
  0.1243191585811689  0.8742602907867042  0.3750000000000000 T T T
  0.3748269299304124  0.8741411165417194  0.3750000000000000 T T T
  0.6251730700695874  0.8741411165417194  0.3750000000000000 T T T
  0.8756808414188310  0.8742602907867042  0.3750000000000000 T T T
  0.1244744980561290  0.1248550425468342  0.6252404043563979 T T T
  0.3738778921681692  0.1243868742106725  0.6260662338755724 T T T
  0.6261221078318309  0.1243868742106725  0.6260662338755724 T T T
  0.8755255019438710  0.1248550425468342  0.6252404043563979 T T T
  0.1248544438618026  0.3751739050235392  0.6252114843174245 T T T
  0.3741623243474663  0.3765905857496402  0.6271861236564260 T T T
  0.6258376756525337  0.3765905857496402  0.6271861236564260 T T T
  0.8751455561381973  0.3751739050235392  0.6252114843174245 T T T
  0.1248728041392694  0.6247368648742817  0.6250884217670158 T T T
  0.3748189847394122  0.6252563066104871  0.6252594101488800 T T T
  0.6251810152605879  0.6252563066104871  0.6252594101488800 T T T
  0.8751271958607305  0.6247368648742817  0.6250884217670158 T T T
  0.1249783812910387  0.8742467412403946  0.6258440165534737 T T T
  0.3751928328809215  0.8746320740710452  0.6253664799106645 T T T
  0.6248071671190785  0.8746320740710452  0.6253664799106645 T T T
  0.8750216187089613  0.8742467412403946  0.6258440165534737 T T T
  0.1246563451804135  0.1248982587710697  0.8750000000000000 T T T
  0.3747455291412019  0.1247280454666700  0.8750000000000000 T T T
  0.6252544708587980  0.1247280454666700  0.8750000000000000 T T T
  0.8753436548195864  0.1248982587710697  0.8750000000000000 T T T
  0.1247902089298047  0.3749811096846788  0.8750000000000000 T T T
  0.3745808836276485  0.3755089090182163  0.8750000000000000 T T T
  0.6254191163723516  0.3755089090182163  0.8750000000000000 T T T
  0.8752097910701953  0.3749811096846788  0.8750000000000000 T T T
  0.1250691180229902  0.6248499057496874  0.8750000000000000 T T T
  0.3750465830986553  0.6252486176916223  0.8750000000000000 T T T
  0.6249534169013449  0.6252486176916223  0.8750000000000000 T T T
  0.8749308819770097  0.6248499057496874  0.8750000000000000 T T T
  0.1250409980708511  0.8748069279651578  0.8750000000000000 T T T
  0.3749446282883815  0.8748257771852076  0.8750000000000000 T T T
  0.6250553717116185  0.8748257771852076  0.8750000000000000 T T T
  0.8749590019291490  0.8748069279651578  0.8750000000000000 T T T
