W    O
   1.00000000000000
  12.6858970305270002   0.0000000000000000   0.0000000000000000
   0.0000000000000000  12.6858970305270002   0.0000000000000000
   0.0000000000000000   0.0000000000000000  12.6858970305270002
W    O
128  1  
Direct
  0.0000338747998774  0.9998936059438770  0.9998279609881130  
  0.1246269341944964  0.1247493101956624  0.1247363851702340  
  0.2493123598937148  0.9992536477579230  0.9997323318342271  
  0.3731233902363970  0.1238892199076954  0.1225124706184897  
  0.5000439131960372  0.9997094670040890  0.9995144598304611  
  0.6255833450290177  0.1242170298807773  0.1243441089798757  
  0.7503623757538237  0.9996609930379980  0.9996912210702040  
  0.8753004186368685  0.1250041068928370  0.1246413633788203  
  0.9999414467955220  0.2500000020101195  0.9999285410646650  
  0.1246269349331165  0.3752506933323744  0.1247363827077066  
  0.2491677720949236  0.2499999989471691  0.9992093879404780  
  0.3731233941052124  0.3761107770016475  0.1225124711547623  
  0.4999427884544039  0.2500000041485835  0.9976318987695620  
  0.6255833458574535  0.3757829667229143  0.1243441076020746  
  0.7500427390773834  0.2500000022465551  0.9993326016710310  
  0.8753004153422986  0.3749958951683366  0.1246413628199359  
  0.0000338733732135  0.5001063928055753  0.9998279646630100  
  0.1249661303485381  0.6251720362535592  0.1248936105820084  
  0.2493123597495051  0.5007463571709417  0.9997323307271120  
  0.3746376246946089  0.6253087806184393  0.1246609927236965  
  0.5000439125618414  0.5002905344119100  0.9995144574716061  
  0.6249560876411874  0.6254855434134716  0.1247094675554776  
  0.7503623746691581  0.5003390070328111  0.9996912212704050  
  0.8756876390170302  0.6252676689445776  0.1242536476594469  
  0.0001546736363675  0.7500000038293109  0.9998625588742140  
  0.1249661237580925  0.8748279611262469  0.1248936096406768  
  0.2499688164335390  0.7499999971359060  0.9999583565554140  
  0.3746376212296678  0.8746912218423839  0.1246609922827976  
  0.4999281336627803  0.7499999986544079  0.9997217573725180  
  0.6249560882300482  0.8745144575670108  0.1247094673065082  
  0.7502081609188717  0.7499999991548550  0.9997135126894330  
  0.8756876420551630  0.8747323291393504  0.1242536466652148  
  0.0003730646352760  0.9997363840581350  0.2497493106149254  
  0.1245448725309385  0.1250674449087224  0.3750000022416690  
  0.2496995849790323  0.9996413590512960  0.2500041060591818  
  0.3711039030672953  0.1230817391469097  0.3749999987036368  
  0.4994166510100954  0.9993441062687290  0.2492170338469487  
  0.6297431588048497  0.1101783341541984  0.3749999968279740  
  0.7518766068731715  0.9975124690172160  0.2488892244257046  
  0.8756962835750768  0.1247250598448121  0.3749999999675405  
  0.0004551258512849  0.2499999999205009  0.2500674475533341  
  0.1245448733566189  0.3749325550386850  0.3749999999437175  
  0.2493037182694549  0.2499999982449361  0.2497250632074623  
  0.3711039008956123  0.3769182591035029  0.3750000015904220  
  0.4952568324082929  0.2499999988019447  0.2351783214034688  
  0.6297431776075830  0.3898217016419263  0.3750000025156267  
  0.7538960989160277  0.2499999993877614  0.2480817396985784  
  0.8756962791258657  0.3752749406659002  0.3750000006693755  
  0.0003730669190768  0.5002636171793847  0.2497493117752360  
  0.1250585521515359  0.6250714599809117  0.3749999972016423  
  0.2496995845085706  0.5003586377191203  0.2500041051499486  
  0.3749572624332223  0.6256674019383540  0.3750000016443852  
  0.4994166525761293  0.5006558953516946  0.2492170304470619  
  0.6250572147071977  0.6273680962319942  0.3749999996227366  
  0.7518766023932546  0.5024875275518831  0.2488892235946519  
  0.8758322235622750  0.6257906106180721  0.3750000023470685  
  0.0003443651425551  0.7499999997806910  0.2498111658602025  
  0.1250585526675691  0.8749285382252564  0.3750000007569570  
  0.2498242693575003  0.7499999968146507  0.2499013149219236  
  0.3749572645279802  0.8743326003997787  0.3749999999858103  
  0.4998202658028036  0.7499999982060899  0.2497949472787669  
  0.6250572158351869  0.8726318989705202  0.3750000000674193  
  0.7505430283328774  0.7500000001854121  0.2495522076836579  
  0.8758322242739841  0.8742093840341781  0.3750000004743552  
  0.0003730668265034  0.9997363828975040  0.5002506926125788  
  0.1246269347585187  0.1247493072280420  0.6252636136740154  
  0.2496995828114735  0.9996413594666330  0.4999958946879264  
  0.3731233966252221  0.1238892219274336  0.6274875293503882  
  0.4994166454177796  0.9993441072411520  0.5007829674489260  
  0.6255833524032971  0.1242170360819366  0.6256558916007120  
  0.7518766041503238  0.9975124696977240  0.5011107786345552  
  0.8753004190324118  0.1250041081754791  0.6253586383319899  
  0.0004551253053455  0.2499999974120042  0.4999325525806178  
  0.1246269324321066  0.3752506924526356  0.6252636162397374  
  0.2493037205003316  0.2499999995377802  0.5002749406568369  
  0.3731233944491851  0.3761107772337536  0.6274875330463699  
  0.4952568251105308  0.2500000010454268  0.5148216814975710  
  0.6255833519839157  0.3757829681593951  0.6256558922703785  
  0.7538960979529132  0.2500000018397414  0.5019182582364099  
  0.8753004169603824  0.3749958957041430  0.6253586354836921  
  0.0003730650650728  0.5002636188811862  0.5002506881240725  
  0.1249661261740262  0.6251720377195382  0.6251063913149950  
  0.2496995849207400  0.5003586362401492  0.4999958933008671  
  0.3746376237324865  0.6253087802003749  0.6253390048335333  
  0.4994166514564661  0.5006558908167010  0.5007829706221461  
  0.6249560871088503  0.6254855410454632  0.6252905299298626  
  0.7518766032929828  0.5024875282105852  0.5011107784416011  
  0.8756876427044337  0.6252676713019173  0.6257463525501151  
  0.0003443619945720  0.7500000025853558  0.5001888360780252  
  0.1249661291720003  0.8748279597999300  0.6251063867234616  
  0.2498242735261022  0.7499999971962324  0.5000986850441467  
  0.3746376236192618  0.8746912214330023  0.6253390052915710  
  0.4998202703726166  0.7499999976585630  0.5002050538917814  
  0.6249560867348908  0.8745144606855559  0.6252905324146170  
  0.7505430284357792  0.7499999997483350  0.5004477986745535  
  0.8756876424307853  0.8747323304237654  0.6257463557971751  
  0.0000338735269826  0.9998936074810270  0.7501720359019819  
  0.1246556359345288  0.1248111604787294  0.8749999981464817  
  0.2493123613968626  0.9992536460200100  0.7502676677754389  
  0.3744569685177959  0.1245522059729850  0.8749999997019304  
  0.5000439144246097  0.9997094693530280  0.7504855373275851  
  0.6251797319232876  0.1247949446116724  0.8750000005766698  
  0.7503623762848282  0.9996609918398560  0.7503087782969656  
  0.8751757298346475  0.1249013146988834  0.8749999998282684  
  0.9999414458379980  0.2499999992763847  0.7500714626401966  
  0.1246556347978330  0.3751888377916167  0.8750000010334533  
  0.2491677791836783  0.2499999981463693  0.7507906127135029  
  0.3744569694259613  0.3754477967515423  0.8749999993421624  
  0.4999427895757916  0.2500000029895689  0.7523680958255745  
  0.6251797308296321  0.3752050553521774  0.8749999990989349  
  0.7500427351410816  0.2500000011630930  0.7506673975625769  
  0.8751757285319832  0.3750986857432337  0.8749999983127813  
  0.0000338732148453  0.5001063959678720  0.7501720336931629  
  0.1248453293261608  0.6251374369042175  0.8749999989447443  
  0.2493123586244529  0.5007463560711043  0.7502676698835259  
  0.3747918373169385  0.6252864887018628  0.8750000016304080  
  0.5000439125328602  0.5002905341451476  0.7504855412784421  
  0.6250718659068091  0.6252782434621545  0.8749999989972521  
  0.7503623765139769  0.5003390079761532  0.7503087762308945  
  0.8750311847922959  0.6250416469236623  0.8749999984826928  
  0.0001546721523265  0.7500000021919013  0.7501374363607649  
  0.1248453212721392  0.8748625589276985  0.8749999998596738  
  0.2499688130411193  0.7499999980219956  0.7500416468396163  
  0.3747918381375678  0.8747135124502803  0.8750000001622441  
  0.4999281397035082  0.7500000010152319  0.7502782420057236  
  0.6250718632684962  0.8747217559056817  0.8749999998878742  
  0.7502081600042200  0.7500000002731076  0.7502864864671863  
  0.8750311858255163  0.8749583565186416  0.8749999999431396  
  0.5625000082596039  0.2499999650831853  0.3749999981413497  
