POSCAR file written by OVITO Basic 3.9.4
    1.000000000000000     
    12.6858970305270109    0.0000000000000000    0.0000000000000000
     0.0000000000000000   12.6858970305270109    0.0000000000000000
     0.0000000000000000    0.0000000000000000   12.6858970305270109
   W 
   127
Direct
     0.0000000000000000    0.0000000000000000    0.0000000000000000
     0.1251573845103920    0.1251573845103920    0.1251573845103920
     0.2499245042700711    0.0000000000000000    0.0000000000000000
     0.3751960101594178    0.1252184312312532    0.1252184312312532
     0.5000000000000000    0.0000000000000000    0.0000000000000000
     0.6248039898405822    0.1252184312312532    0.1252184312312532
     0.7500754957299290    0.0000000000000000    0.0000000000000000
     0.8748426154896080    0.1251573845103920    0.1251573845103920
     0.0000000000000000    0.2499245042700711    0.0000000000000000
     0.1252184312312532    0.3751960101594178    0.1252184312312532
     0.2500290602069508    0.2500290602069508    0.0000000000000000
     0.3751182596592023    0.3751182596592023    0.1248400834841075
     0.5000000000000000    0.2500189272269798    0.0000000000000000
     0.6248817403407975    0.3751182596592023    0.1248400834841075
     0.7499709397930494    0.2500290602069508    0.0000000000000000
     0.8747815687687468    0.3751960101594178    0.1252184312312532
     0.0000000000000000    0.5000000000000000    0.0000000000000000
     0.1252184312312532    0.6248039898405822    0.1252184312312532
     0.2500189272269798    0.5000000000000000    0.0000000000000000
     0.3751182596592023    0.6248817403407975    0.1248400834841075
     0.5000000000000000    0.5000000000000000    0.0000000000000000
     0.6248817403407975    0.6248817403407975    0.1248400834841075
     0.7499810727730201    0.5000000000000000    0.0000000000000000
     0.8747815687687468    0.6248039898405822    0.1252184312312532
     0.0000000000000000    0.7500754957299290    0.0000000000000000
     0.1251573845103920    0.8748426154896080    0.1251573845103920
     0.2500290602069508    0.7499709397930494    0.0000000000000000
     0.3751960101594178    0.8747815687687468    0.1252184312312532
     0.5000000000000000    0.7499810727730201    0.0000000000000000
     0.6248039898405822    0.8747815687687468    0.1252184312312532
     0.7499709397930494    0.7499709397930494    0.0000000000000000
     0.8748426154896080    0.8748426154896080    0.1251573845103920
     0.0000000000000000    0.0000000000000000    0.2499245042700711
     0.1252184312312532    0.1252184312312532    0.3751960101594178
     0.2500290602069508    0.0000000000000000    0.2500290602069508
     0.3751182596592023    0.1248400834841075    0.3751182596592023
     0.5000000000000000    0.0000000000000000    0.2500189272269798
     0.6248817403407975    0.1248400834841075    0.3751182596592023
     0.7499709397930494    0.0000000000000000    0.2500290602069508
     0.8747815687687468    0.1252184312312532    0.3751960101594178
     0.0000000000000000    0.2500290602069508    0.2500290602069508
     0.1248400834841075    0.3751182596592023    0.3751182596592023
     0.2508818590491222    0.2508818590491222    0.2508818590491222
     0.3763056320211041    0.3763056320211041    0.3763056320211041
     0.5000000000000000    0.2505559132650300    0.2505559132650300
     0.6236943679788962    0.3763056320211041    0.3763056320211041
     0.7491181409508776    0.2508818590491222    0.2508818590491222
     0.8751599165158924    0.3751182596592023    0.3751182596592023
     0.0000000000000000    0.5000000000000000    0.2500189272269798
     0.1248400834841075    0.6248817403407975    0.3751182596592023
     0.2505559132650300    0.5000000000000000    0.2505559132650300
     0.3763056320211041    0.6236943679788962    0.3763056320211041
     0.5000000000000000    0.5000000000000000    0.2523205855951958
     0.6236943679788962    0.6236943679788962    0.3763056320211041
     0.7494440867349699    0.5000000000000000    0.2505559132650300
     0.8751599165158924    0.6248817403407975    0.3751182596592023
     0.0000000000000000    0.7499709397930494    0.2500290602069508
     0.1252184312312532    0.8747815687687468    0.3751960101594178
     0.2508818590491222    0.7491181409508776    0.2508818590491222
     0.3751182596592023    0.8751599165158924    0.3751182596592023
     0.5000000000000000    0.7494440867349699    0.2505559132650300
     0.6248817403407975    0.8751599165158924    0.3751182596592023
     0.7491181409508776    0.7491181409508776    0.2508818590491222
     0.8747815687687468    0.8747815687687468    0.3751960101594178
     0.0000000000000000    0.0000000000000000    0.5000000000000000
     0.1252184312312532    0.1252184312312532    0.6248039898405822
     0.2500189272269798    0.0000000000000000    0.5000000000000000
     0.3751182596592023    0.1248400834841075    0.6248817403407975
     0.5000000000000000    0.0000000000000000    0.5000000000000000
     0.6248817403407975    0.1248400834841075    0.6248817403407975
     0.7499810727730201    0.0000000000000000    0.5000000000000000
     0.8747815687687468    0.1252184312312532    0.6248039898405822
     0.0000000000000000    0.2500189272269798    0.5000000000000000
     0.1248400834841075    0.3751182596592023    0.6248817403407975
     0.2505559132650300    0.2505559132650300    0.5000000000000000
     0.3763056320211041    0.3763056320211041    0.6236943679788962
     0.5000000000000000    0.2523205855951958    0.5000000000000000
     0.6236943679788962    0.3763056320211041    0.6236943679788962
     0.7494440867349699    0.2505559132650300    0.5000000000000000
     0.8751599165158924    0.3751182596592023    0.6248817403407975
     0.0000000000000000    0.5000000000000000    0.5000000000000000
     0.1248400834841075    0.6248817403407975    0.6248817403407975
     0.2523205855951958    0.5000000000000000    0.5000000000000000
     0.3763056320211041    0.6236943679788962    0.6236943679788962
     0.6236943679788962    0.6236943679788962    0.6236943679788962
     0.7476794144048041    0.5000000000000000    0.5000000000000000
     0.8751599165158924    0.6248817403407975    0.6248817403407975
     0.0000000000000000    0.7499810727730201    0.5000000000000000
     0.1252184312312532    0.8747815687687468    0.6248039898405822
     0.2505559132650300    0.7494440867349699    0.5000000000000000
     0.3751182596592023    0.8751599165158924    0.6248817403407975
     0.5000000000000000    0.7476794144048041    0.5000000000000000
     0.6248817403407975    0.8751599165158924    0.6248817403407975
     0.7494440867349699    0.7494440867349699    0.5000000000000000
     0.8747815687687468    0.8747815687687468    0.6248039898405822
     0.0000000000000000    0.0000000000000000    0.7500754957299290
     0.1251573845103920    0.1251573845103920    0.8748426154896080
     0.2500290602069508    0.0000000000000000    0.7499709397930494
     0.3751960101594178    0.1252184312312532    0.8747815687687468
     0.5000000000000000    0.0000000000000000    0.7499810727730201
     0.6248039898405822    0.1252184312312532    0.8747815687687468
     0.7499709397930494    0.0000000000000000    0.7499709397930494
     0.8748426154896080    0.1251573845103920    0.8748426154896080
     0.0000000000000000    0.2500290602069508    0.7499709397930494
     0.1252184312312532    0.3751960101594178    0.8747815687687468
     0.2508818590491222    0.2508818590491222    0.7491181409508776
     0.3751182596592023    0.3751182596592023    0.8751599165158924
     0.5000000000000000    0.2505559132650300    0.7494440867349699
     0.6248817403407975    0.3751182596592023    0.8751599165158924
     0.7491181409508776    0.2508818590491222    0.7491181409508776
     0.8747815687687468    0.3751960101594178    0.8747815687687468
     0.0000000000000000    0.5000000000000000    0.7499810727730201
     0.1252184312312532    0.6248039898405822    0.8747815687687468
     0.2505559132650300    0.5000000000000000    0.7494440867349699
     0.3751182596592023    0.6248817403407975    0.8751599165158924
     0.5000000000000000    0.5000000000000000    0.7476794144048041
     0.6248817403407975    0.6248817403407975    0.8751599165158924
     0.7494440867349699    0.5000000000000000    0.7494440867349699
     0.8747815687687468    0.6248039898405822    0.8747815687687468
     0.0000000000000000    0.7499709397930494    0.7499709397930494
     0.1251573845103920    0.8748426154896080    0.8748426154896080
     0.2508818590491222    0.7491181409508776    0.7491181409508776
     0.3751960101594178    0.8747815687687468    0.8747815687687468
     0.5000000000000000    0.7494440867349699    0.7494440867349699
     0.6248039898405822    0.8747815687687468    0.8747815687687468
     0.7491181409508776    0.7491181409508776    0.7491181409508776
     0.8748426154896080    0.8748426154896080    0.8748426154896080
 
  0.00000000E+00  0.00000000E+00  0.00000000E+00
  0.00000000E+00  0.00000000E+00  0.00000000E+00
  0.00000000E+00  0.00000000E+00  0.00000000E+00
  0.00000000E+00  0.00000000E+00  0.00000000E+00
  0.00000000E+00  0.00000000E+00  0.00000000E+00
  0.00000000E+00  0.00000000E+00  0.00000000E+00
  0.00000000E+00  0.00000000E+00  0.00000000E+00
  0.00000000E+00  0.00000000E+00  0.00000000E+00
  0.00000000E+00  0.00000000E+00  0.00000000E+00
  0.00000000E+00  0.00000000E+00  0.00000000E+00
  0.00000000E+00  0.00000000E+00  0.00000000E+00
  0.00000000E+00  0.00000000E+00  0.00000000E+00
  0.00000000E+00  0.00000000E+00  0.00000000E+00
  0.00000000E+00  0.00000000E+00  0.00000000E+00
  0.00000000E+00  0.00000000E+00  0.00000000E+00
  0.00000000E+00  0.00000000E+00  0.00000000E+00
  0.00000000E+00  0.00000000E+00  0.00000000E+00
  0.00000000E+00  0.00000000E+00  0.00000000E+00
  0.00000000E+00  0.00000000E+00  0.00000000E+00
  0.00000000E+00  0.00000000E+00  0.00000000E+00
  0.00000000E+00  0.00000000E+00  0.00000000E+00
  0.00000000E+00  0.00000000E+00  0.00000000E+00
  0.00000000E+00  0.00000000E+00  0.00000000E+00
  0.00000000E+00  0.00000000E+00  0.00000000E+00
  0.00000000E+00  0.00000000E+00  0.00000000E+00
  0.00000000E+00  0.00000000E+00  0.00000000E+00
  0.00000000E+00  0.00000000E+00  0.00000000E+00
  0.00000000E+00  0.00000000E+00  0.00000000E+00
  0.00000000E+00  0.00000000E+00  0.00000000E+00
  0.00000000E+00  0.00000000E+00  0.00000000E+00
  0.00000000E+00  0.00000000E+00  0.00000000E+00
  0.00000000E+00  0.00000000E+00  0.00000000E+00
  0.00000000E+00  0.00000000E+00  0.00000000E+00
  0.00000000E+00  0.00000000E+00  0.00000000E+00
  0.00000000E+00  0.00000000E+00  0.00000000E+00
  0.00000000E+00  0.00000000E+00  0.00000000E+00
  0.00000000E+00  0.00000000E+00  0.00000000E+00
  0.00000000E+00  0.00000000E+00  0.00000000E+00
  0.00000000E+00  0.00000000E+00  0.00000000E+00
  0.00000000E+00  0.00000000E+00  0.00000000E+00
  0.00000000E+00  0.00000000E+00  0.00000000E+00
  0.00000000E+00  0.00000000E+00  0.00000000E+00
  0.00000000E+00  0.00000000E+00  0.00000000E+00
  0.00000000E+00  0.00000000E+00  0.00000000E+00
  0.00000000E+00  0.00000000E+00  0.00000000E+00
  0.00000000E+00  0.00000000E+00  0.00000000E+00
  0.00000000E+00  0.00000000E+00  0.00000000E+00
  0.00000000E+00  0.00000000E+00  0.00000000E+00
  0.00000000E+00  0.00000000E+00  0.00000000E+00
  0.00000000E+00  0.00000000E+00  0.00000000E+00
  0.00000000E+00  0.00000000E+00  0.00000000E+00
  0.00000000E+00  0.00000000E+00  0.00000000E+00
  0.00000000E+00  0.00000000E+00  0.00000000E+00
  0.00000000E+00  0.00000000E+00  0.00000000E+00
  0.00000000E+00  0.00000000E+00  0.00000000E+00
  0.00000000E+00  0.00000000E+00  0.00000000E+00
  0.00000000E+00  0.00000000E+00  0.00000000E+00
  0.00000000E+00  0.00000000E+00  0.00000000E+00
  0.00000000E+00  0.00000000E+00  0.00000000E+00
  0.00000000E+00  0.00000000E+00  0.00000000E+00
  0.00000000E+00  0.00000000E+00  0.00000000E+00
  0.00000000E+00  0.00000000E+00  0.00000000E+00
  0.00000000E+00  0.00000000E+00  0.00000000E+00
  0.00000000E+00  0.00000000E+00  0.00000000E+00
  0.00000000E+00  0.00000000E+00  0.00000000E+00
  0.00000000E+00  0.00000000E+00  0.00000000E+00
  0.00000000E+00  0.00000000E+00  0.00000000E+00
  0.00000000E+00  0.00000000E+00  0.00000000E+00
  0.00000000E+00  0.00000000E+00  0.00000000E+00
  0.00000000E+00  0.00000000E+00  0.00000000E+00
  0.00000000E+00  0.00000000E+00  0.00000000E+00
  0.00000000E+00  0.00000000E+00  0.00000000E+00
  0.00000000E+00  0.00000000E+00  0.00000000E+00
  0.00000000E+00  0.00000000E+00  0.00000000E+00
  0.00000000E+00  0.00000000E+00  0.00000000E+00
  0.00000000E+00  0.00000000E+00  0.00000000E+00
  0.00000000E+00  0.00000000E+00  0.00000000E+00
  0.00000000E+00  0.00000000E+00  0.00000000E+00
  0.00000000E+00  0.00000000E+00  0.00000000E+00
  0.00000000E+00  0.00000000E+00  0.00000000E+00
  0.00000000E+00  0.00000000E+00  0.00000000E+00
  0.00000000E+00  0.00000000E+00  0.00000000E+00
  0.00000000E+00  0.00000000E+00  0.00000000E+00
  0.00000000E+00  0.00000000E+00  0.00000000E+00
  0.00000000E+00  0.00000000E+00  0.00000000E+00
  0.00000000E+00  0.00000000E+00  0.00000000E+00
  0.00000000E+00  0.00000000E+00  0.00000000E+00
  0.00000000E+00  0.00000000E+00  0.00000000E+00
  0.00000000E+00  0.00000000E+00  0.00000000E+00
  0.00000000E+00  0.00000000E+00  0.00000000E+00
  0.00000000E+00  0.00000000E+00  0.00000000E+00
  0.00000000E+00  0.00000000E+00  0.00000000E+00
  0.00000000E+00  0.00000000E+00  0.00000000E+00
  0.00000000E+00  0.00000000E+00  0.00000000E+00
  0.00000000E+00  0.00000000E+00  0.00000000E+00
  0.00000000E+00  0.00000000E+00  0.00000000E+00
  0.00000000E+00  0.00000000E+00  0.00000000E+00
  0.00000000E+00  0.00000000E+00  0.00000000E+00
  0.00000000E+00  0.00000000E+00  0.00000000E+00
  0.00000000E+00  0.00000000E+00  0.00000000E+00
  0.00000000E+00  0.00000000E+00  0.00000000E+00
  0.00000000E+00  0.00000000E+00  0.00000000E+00
  0.00000000E+00  0.00000000E+00  0.00000000E+00
  0.00000000E+00  0.00000000E+00  0.00000000E+00
  0.00000000E+00  0.00000000E+00  0.00000000E+00
  0.00000000E+00  0.00000000E+00  0.00000000E+00
  0.00000000E+00  0.00000000E+00  0.00000000E+00
  0.00000000E+00  0.00000000E+00  0.00000000E+00
  0.00000000E+00  0.00000000E+00  0.00000000E+00
  0.00000000E+00  0.00000000E+00  0.00000000E+00
  0.00000000E+00  0.00000000E+00  0.00000000E+00
  0.00000000E+00  0.00000000E+00  0.00000000E+00
  0.00000000E+00  0.00000000E+00  0.00000000E+00
  0.00000000E+00  0.00000000E+00  0.00000000E+00
  0.00000000E+00  0.00000000E+00  0.00000000E+00
  0.00000000E+00  0.00000000E+00  0.00000000E+00
  0.00000000E+00  0.00000000E+00  0.00000000E+00
  0.00000000E+00  0.00000000E+00  0.00000000E+00
  0.00000000E+00  0.00000000E+00  0.00000000E+00
  0.00000000E+00  0.00000000E+00  0.00000000E+00
  0.00000000E+00  0.00000000E+00  0.00000000E+00
  0.00000000E+00  0.00000000E+00  0.00000000E+00
  0.00000000E+00  0.00000000E+00  0.00000000E+00
  0.00000000E+00  0.00000000E+00  0.00000000E+00
  0.00000000E+00  0.00000000E+00  0.00000000E+00
  0.00000000E+00  0.00000000E+00  0.00000000E+00
  0.00000000E+00  0.00000000E+00  0.00000000E+00
