POSCAR file written by OVITO Basic 3.9.4
   1.00000000000000     
    12.6858970305270109    0.0000000000000000    0.0000000000000000
    -0.0000000000000000   12.6858970305270109   -0.0000000000000000
    -0.0000000000000000   -0.0000000000000000   12.6858970305270109
   W 
   127
Direct
 -0.0000000000000000  0.0000000000000000 -0.0000000000000000
  0.1250000000000000  0.1250000000000000  0.1250000000000000
  0.2500000000000000 -0.0000000000000000  0.0000000000000000
  0.3750000000000000  0.1250000000000000  0.1250000000000000
  0.5000000000000000 -0.0000000000000000  0.0000000000000000
  0.6250000000000000  0.1250000000000000  0.1250000000000000
  0.7500000000000000 -0.0000000000000000  0.0000000000000000
  0.8750000000000000  0.1250000000000000  0.1250000000000000
 -0.0000000000000000  0.2500000000000000 -0.0000000000000000
  0.1250000000000000  0.3750000000000000  0.1250000000000000
  0.2500000000000000  0.2500000000000000  0.0000000000000000
  0.3750000000000000  0.3750000000000000  0.1250000000000000
  0.5000000000000000  0.2500000000000000  0.0000000000000000
  0.6250000000000000  0.3750000000000000  0.1250000000000000
  0.7500000000000000  0.2500000000000000 -0.0000000000000000
  0.8750000000000000  0.3750000000000000  0.1250000000000000
 -0.0000000000000000  0.5000000000000000  0.0000000000000000
  0.1250000000000000  0.6250000000000000  0.1250000000000000
  0.2500000000000000  0.5000000000000000 -0.0000000000000000
  0.3750000000000000  0.6250000000000000  0.1250000000000000
  0.5000000000000000  0.5000000000000000 -0.0000000000000000
  0.6250000000000000  0.6250000000000000  0.1250000000000000
  0.7500000000000000  0.5000000000000000 -0.0000000000000000
  0.8750000000000000  0.6250000000000000  0.1250000000000000
 -0.0000000000000000  0.7500000000000000  0.0000000000000000
  0.1250000000000000  0.8750000000000000  0.1250000000000000
  0.2500000000000000  0.7500000000000000 -0.0000000000000000
  0.3750000000000000  0.8750000000000000  0.1250000000000000
  0.5000000000000000  0.7500000000000000 -0.0000000000000000
  0.6250000000000000  0.8750000000000000  0.1250000000000000
  0.7500000000000000  0.7500000000000000  0.0000000000000000
  0.8750000000000000  0.8750000000000000  0.1250000000000000
  0.0000000000000000 -0.0000000000000000  0.2500000000000000
  0.1250000000000000  0.1250000000000000  0.3750000000000000
  0.2500000000000000  0.0000000000000000  0.2500000000000000
  0.3750000000000000  0.1250000000000000  0.3750000000000000
  0.5000000000000000 -0.0000000000000000  0.2500000000000000
  0.6250000000000000  0.1250000000000000  0.3750000000000000
  0.7500000000000000  0.0000000000000000  0.2500000000000000
  0.8750000000000000  0.1250000000000000  0.3750000000000000
 -0.0000000000000000  0.2500000000000000  0.2500000000000000
  0.1250000000000000  0.3750000000000000  0.3750000000000000
  0.2500000000000000  0.2500000000000000  0.2500000000000000
  0.3750000000000000  0.3750000000000000  0.3750000000000000
  0.5000000000000000  0.2500000000000000  0.2500000000000000
  0.6250000000000000  0.3750000000000000  0.3750000000000000
  0.7500000000000000  0.2500000000000000  0.2500000000000000
  0.8750000000000000  0.3750000000000000  0.3750000000000000
  0.0000000000000000  0.5000000000000000  0.2500000000000000
  0.1250000000000000  0.6250000000000000  0.3750000000000000
  0.2500000000000000  0.5000000000000000  0.2500000000000000
  0.3750000000000000  0.6250000000000000  0.3750000000000000
  0.5000000000000000  0.5000000000000000  0.2500000000000000
  0.6250000000000000  0.6250000000000000  0.3750000000000000
  0.7500000000000000  0.5000000000000000  0.2500000000000000
  0.8750000000000000  0.6250000000000000  0.3750000000000000
 -0.0000000000000000  0.7500000000000000  0.2500000000000000
  0.1250000000000000  0.8750000000000000  0.3750000000000000
  0.2500000000000000  0.7500000000000000  0.2500000000000000
  0.3750000000000000  0.8750000000000000  0.3750000000000000
  0.5000000000000000  0.7500000000000000  0.2500000000000000
  0.6250000000000000  0.8750000000000000  0.3750000000000000
  0.7500000000000000  0.7500000000000000  0.2500000000000000
  0.8750000000000000  0.8750000000000000  0.3750000000000000
 -0.0000000000000000 -0.0000000000000000  0.5000000000000000
  0.1250000000000000  0.1250000000000000  0.6250000000000000
  0.2500000000000000 -0.0000000000000000  0.5000000000000000
  0.3750000000000000  0.1250000000000000  0.6250000000000000
  0.5000000000000000  0.0000000000000000  0.5000000000000000
  0.6250000000000000  0.1250000000000000  0.6250000000000000
  0.7500000000000000 -0.0000000000000000  0.5000000000000000
  0.8750000000000000  0.1250000000000000  0.6250000000000000
 -0.0000000000000000  0.2500000000000000  0.5000000000000000
  0.1250000000000000  0.3750000000000000  0.6250000000000000
  0.2500000000000000  0.2500000000000000  0.5000000000000000
  0.3750000000000000  0.3750000000000000  0.6250000000000000
  0.5000000000000000  0.2500000000000000  0.5000000000000000
  0.6250000000000000  0.3750000000000000  0.6250000000000000
  0.7500000000000000  0.2500000000000000  0.5000000000000000
  0.8750000000000000  0.3750000000000000  0.6250000000000000
  0.0000000000000000  0.5000000000000000  0.5000000000000000
  0.1250000000000000  0.6250000000000000  0.6250000000000000
  0.2500000000000000  0.5000000000000000  0.5000000000000000
  0.3750000000000000  0.6250000000000000  0.6250000000000000
  0.6250000000000000  0.6250000000000000  0.6250000000000000
  0.7500000000000000  0.5000000000000000  0.5000000000000000
  0.8750000000000000  0.6250000000000000  0.6250000000000000
 -0.0000000000000000  0.7500000000000000  0.5000000000000000
  0.1250000000000000  0.8750000000000000  0.6250000000000000
  0.2500000000000000  0.7500000000000000  0.5000000000000000
  0.3750000000000000  0.8750000000000000  0.6250000000000000
  0.5000000000000000  0.7500000000000000  0.5000000000000000
  0.6250000000000000  0.8750000000000000  0.6250000000000000
  0.7500000000000000  0.7500000000000000  0.5000000000000000
  0.8750000000000000  0.8750000000000000  0.6250000000000000
 -0.0000000000000000 -0.0000000000000000  0.7500000000000000
  0.1250000000000000  0.1250000000000000  0.8750000000000000
  0.2500000000000000  0.0000000000000000  0.7500000000000000
  0.3750000000000000  0.1250000000000000  0.8750000000000000
  0.5000000000000000 -0.0000000000000000  0.7500000000000000
  0.6250000000000000  0.1250000000000000  0.8750000000000000
  0.7500000000000000 -0.0000000000000000  0.7500000000000000
  0.8750000000000000  0.1250000000000000  0.8750000000000000
 -0.0000000000000000  0.2500000000000000  0.7500000000000000
  0.1250000000000000  0.3750000000000000  0.8750000000000000
  0.2500000000000000  0.2500000000000000  0.7500000000000000
  0.3750000000000000  0.3750000000000000  0.8750000000000000
  0.5000000000000000  0.2500000000000000  0.7500000000000000
  0.6250000000000000  0.3750000000000000  0.8750000000000000
  0.7500000000000000  0.2500000000000000  0.7500000000000000
  0.8750000000000000  0.3750000000000000  0.8750000000000000
 -0.0000000000000000  0.5000000000000000  0.7500000000000000
  0.1250000000000000  0.6250000000000000  0.8750000000000000
  0.2500000000000000  0.5000000000000000  0.7500000000000000
  0.3750000000000000  0.6250000000000000  0.8750000000000000
  0.5000000000000000  0.5000000000000000  0.7500000000000000
  0.6250000000000000  0.6250000000000000  0.8750000000000000
  0.7500000000000000  0.5000000000000000  0.7500000000000000
  0.8750000000000000  0.6250000000000000  0.8750000000000000
  0.0000000000000000  0.7500000000000000  0.7500000000000000
  0.1250000000000000  0.8750000000000000  0.8750000000000000
  0.2500000000000000  0.7500000000000000  0.7500000000000000
  0.3750000000000000  0.8750000000000000  0.8750000000000000
  0.5000000000000000  0.7500000000000000  0.7500000000000000
  0.6250000000000000  0.8750000000000000  0.8750000000000000
  0.7500000000000000  0.7500000000000000  0.7500000000000000
  0.8750000000000000  0.8750000000000000  0.8750000000000000
 
  0.00000000E+00  0.00000000E+00  0.00000000E+00
  0.00000000E+00  0.00000000E+00  0.00000000E+00
  0.00000000E+00  0.00000000E+00  0.00000000E+00
  0.00000000E+00  0.00000000E+00  0.00000000E+00
  0.00000000E+00  0.00000000E+00  0.00000000E+00
  0.00000000E+00  0.00000000E+00  0.00000000E+00
  0.00000000E+00  0.00000000E+00  0.00000000E+00
  0.00000000E+00  0.00000000E+00  0.00000000E+00
  0.00000000E+00  0.00000000E+00  0.00000000E+00
  0.00000000E+00  0.00000000E+00  0.00000000E+00
  0.00000000E+00  0.00000000E+00  0.00000000E+00
  0.00000000E+00  0.00000000E+00  0.00000000E+00
  0.00000000E+00  0.00000000E+00  0.00000000E+00
  0.00000000E+00  0.00000000E+00  0.00000000E+00
  0.00000000E+00  0.00000000E+00  0.00000000E+00
  0.00000000E+00  0.00000000E+00  0.00000000E+00
  0.00000000E+00  0.00000000E+00  0.00000000E+00
  0.00000000E+00  0.00000000E+00  0.00000000E+00
  0.00000000E+00  0.00000000E+00  0.00000000E+00
  0.00000000E+00  0.00000000E+00  0.00000000E+00
  0.00000000E+00  0.00000000E+00  0.00000000E+00
  0.00000000E+00  0.00000000E+00  0.00000000E+00
  0.00000000E+00  0.00000000E+00  0.00000000E+00
  0.00000000E+00  0.00000000E+00  0.00000000E+00
  0.00000000E+00  0.00000000E+00  0.00000000E+00
  0.00000000E+00  0.00000000E+00  0.00000000E+00
  0.00000000E+00  0.00000000E+00  0.00000000E+00
  0.00000000E+00  0.00000000E+00  0.00000000E+00
  0.00000000E+00  0.00000000E+00  0.00000000E+00
  0.00000000E+00  0.00000000E+00  0.00000000E+00
  0.00000000E+00  0.00000000E+00  0.00000000E+00
  0.00000000E+00  0.00000000E+00  0.00000000E+00
  0.00000000E+00  0.00000000E+00  0.00000000E+00
  0.00000000E+00  0.00000000E+00  0.00000000E+00
  0.00000000E+00  0.00000000E+00  0.00000000E+00
  0.00000000E+00  0.00000000E+00  0.00000000E+00
  0.00000000E+00  0.00000000E+00  0.00000000E+00
  0.00000000E+00  0.00000000E+00  0.00000000E+00
  0.00000000E+00  0.00000000E+00  0.00000000E+00
  0.00000000E+00  0.00000000E+00  0.00000000E+00
  0.00000000E+00  0.00000000E+00  0.00000000E+00
  0.00000000E+00  0.00000000E+00  0.00000000E+00
  0.00000000E+00  0.00000000E+00  0.00000000E+00
  0.00000000E+00  0.00000000E+00  0.00000000E+00
  0.00000000E+00  0.00000000E+00  0.00000000E+00
  0.00000000E+00  0.00000000E+00  0.00000000E+00
  0.00000000E+00  0.00000000E+00  0.00000000E+00
  0.00000000E+00  0.00000000E+00  0.00000000E+00
  0.00000000E+00  0.00000000E+00  0.00000000E+00
  0.00000000E+00  0.00000000E+00  0.00000000E+00
  0.00000000E+00  0.00000000E+00  0.00000000E+00
  0.00000000E+00  0.00000000E+00  0.00000000E+00
  0.00000000E+00  0.00000000E+00  0.00000000E+00
  0.00000000E+00  0.00000000E+00  0.00000000E+00
  0.00000000E+00  0.00000000E+00  0.00000000E+00
  0.00000000E+00  0.00000000E+00  0.00000000E+00
  0.00000000E+00  0.00000000E+00  0.00000000E+00
  0.00000000E+00  0.00000000E+00  0.00000000E+00
  0.00000000E+00  0.00000000E+00  0.00000000E+00
  0.00000000E+00  0.00000000E+00  0.00000000E+00
  0.00000000E+00  0.00000000E+00  0.00000000E+00
  0.00000000E+00  0.00000000E+00  0.00000000E+00
  0.00000000E+00  0.00000000E+00  0.00000000E+00
  0.00000000E+00  0.00000000E+00  0.00000000E+00
  0.00000000E+00  0.00000000E+00  0.00000000E+00
  0.00000000E+00  0.00000000E+00  0.00000000E+00
  0.00000000E+00  0.00000000E+00  0.00000000E+00
  0.00000000E+00  0.00000000E+00  0.00000000E+00
  0.00000000E+00  0.00000000E+00  0.00000000E+00
  0.00000000E+00  0.00000000E+00  0.00000000E+00
  0.00000000E+00  0.00000000E+00  0.00000000E+00
  0.00000000E+00  0.00000000E+00  0.00000000E+00
  0.00000000E+00  0.00000000E+00  0.00000000E+00
  0.00000000E+00  0.00000000E+00  0.00000000E+00
  0.00000000E+00  0.00000000E+00  0.00000000E+00
  0.00000000E+00  0.00000000E+00  0.00000000E+00
  0.00000000E+00  0.00000000E+00  0.00000000E+00
  0.00000000E+00  0.00000000E+00  0.00000000E+00
  0.00000000E+00  0.00000000E+00  0.00000000E+00
  0.00000000E+00  0.00000000E+00  0.00000000E+00
  0.00000000E+00  0.00000000E+00  0.00000000E+00
  0.00000000E+00  0.00000000E+00  0.00000000E+00
  0.00000000E+00  0.00000000E+00  0.00000000E+00
  0.00000000E+00  0.00000000E+00  0.00000000E+00
  0.00000000E+00  0.00000000E+00  0.00000000E+00
  0.00000000E+00  0.00000000E+00  0.00000000E+00
  0.00000000E+00  0.00000000E+00  0.00000000E+00
  0.00000000E+00  0.00000000E+00  0.00000000E+00
  0.00000000E+00  0.00000000E+00  0.00000000E+00
  0.00000000E+00  0.00000000E+00  0.00000000E+00
  0.00000000E+00  0.00000000E+00  0.00000000E+00
  0.00000000E+00  0.00000000E+00  0.00000000E+00
  0.00000000E+00  0.00000000E+00  0.00000000E+00
  0.00000000E+00  0.00000000E+00  0.00000000E+00
  0.00000000E+00  0.00000000E+00  0.00000000E+00
  0.00000000E+00  0.00000000E+00  0.00000000E+00
  0.00000000E+00  0.00000000E+00  0.00000000E+00
  0.00000000E+00  0.00000000E+00  0.00000000E+00
  0.00000000E+00  0.00000000E+00  0.00000000E+00
  0.00000000E+00  0.00000000E+00  0.00000000E+00
  0.00000000E+00  0.00000000E+00  0.00000000E+00
  0.00000000E+00  0.00000000E+00  0.00000000E+00
  0.00000000E+00  0.00000000E+00  0.00000000E+00
  0.00000000E+00  0.00000000E+00  0.00000000E+00
  0.00000000E+00  0.00000000E+00  0.00000000E+00
  0.00000000E+00  0.00000000E+00  0.00000000E+00
  0.00000000E+00  0.00000000E+00  0.00000000E+00
  0.00000000E+00  0.00000000E+00  0.00000000E+00
  0.00000000E+00  0.00000000E+00  0.00000000E+00
  0.00000000E+00  0.00000000E+00  0.00000000E+00
  0.00000000E+00  0.00000000E+00  0.00000000E+00
  0.00000000E+00  0.00000000E+00  0.00000000E+00
  0.00000000E+00  0.00000000E+00  0.00000000E+00
  0.00000000E+00  0.00000000E+00  0.00000000E+00
  0.00000000E+00  0.00000000E+00  0.00000000E+00
  0.00000000E+00  0.00000000E+00  0.00000000E+00
  0.00000000E+00  0.00000000E+00  0.00000000E+00
  0.00000000E+00  0.00000000E+00  0.00000000E+00
  0.00000000E+00  0.00000000E+00  0.00000000E+00
  0.00000000E+00  0.00000000E+00  0.00000000E+00
  0.00000000E+00  0.00000000E+00  0.00000000E+00
  0.00000000E+00  0.00000000E+00  0.00000000E+00
  0.00000000E+00  0.00000000E+00  0.00000000E+00
  0.00000000E+00  0.00000000E+00  0.00000000E+00
  0.00000000E+00  0.00000000E+00  0.00000000E+00
  0.00000000E+00  0.00000000E+00  0.00000000E+00
  0.00000000E+00  0.00000000E+00  0.00000000E+00
  0.00000000E+00  0.00000000E+00  0.00000000E+00
